Sb2 Se3                                 
  0.998820000000002     
    11.9454718211925162    0.0000000000000000    0.0000000000000000
     0.0000000000000000   11.9285311965989376    0.0000000000000000
     0.0000000000000000    0.0000000000000000   11.5287107052303703
   Sb   Se
    25    35
Direct
  0.4148457484540131  0.5832607374556666  0.3457998644062950
  0.5267615205874470  0.0833171443267282  0.1738729249069252
  0.5345466640513238  0.4189257376189843  0.1669245374276455
  0.5344688976115156  0.7477786373178266  0.1669935964889585
  0.4729423095700285  0.2494709536064812  0.8286941407826652
  0.4754463405826211  0.5833158329997631  0.8288007727374025
  0.4729969456322470  0.9171465090328457  0.8287814385988975
  0.9693813288579091  0.2505083413627752  0.6703654671055976
  0.9686589676774141  0.5833447765731462  0.6706470368053430
  0.9693958670568404  0.9161886587996502  0.6703483156782590
  0.0310745994583704  0.0833406647170713  0.3280688009048005
  0.0312373947732479  0.4166215632792470  0.3279997997765354
  0.0312271506719613  0.7500695733525463  0.3279932007749460
  0.6464291439716949  0.2499923109044728  0.4634116977026020
  0.6400168340717586  0.5833217384981321  0.4521089780849296
  0.6464747125485242  0.9167021258793662  0.4633572271164750
  0.3571721151148112  0.0833558417384787  0.5309119888362174
  0.3526434737689431  0.4166278318254331  0.5483833530517477
  0.3527855783918212  0.7499971668522595  0.5484570237390809
  0.8530653841157552  0.0833240351991922  0.9646545839076052
  0.8561129026491185  0.4168622724893167  0.9625801106508204
  0.8561255566812110  0.7498200826801702  0.9625954537187470
  0.1450015109867739  0.2481832763974905  0.0366202995382300
  0.1474309257827985  0.5833450990093725  0.0380691312677910
  0.1450204957866949  0.9185103388833918  0.0366381052960984
  0.6263880176562102  0.2452563645078224  0.0528951415410137
  0.6319480956634116  0.5833635005775949  0.0508723292500557
  0.6264181905021236  0.9214348235335903  0.0528887409630011
  0.3705310684512368  0.0832848229211094  0.9432186860215833
  0.3768080543142793  0.4166800296463988  0.9475541152425921
  0.3768201333941161  0.7499489520800126  0.9475672131217052
  0.8716586932426839  0.0833522669074843  0.5538548812872935
  0.8709528344269186  0.4158507248745822  0.5548205329476483
  0.8709706388354085  0.7508406822317543  0.5548107688801792
  0.1276640500014467  0.2501134895850695  0.4470843432718037
  0.1239310559899399  0.5833577233266199  0.4501194352474245
  0.1276739489309828  0.9165585458433696  0.4470671484697398
  0.7083201024271831  0.0833716863263560  0.3076809207816453
  0.7125004932823258  0.4159614692464120  0.3045065569038002
  0.7124996720020018  0.7506727520490707  0.3045147169554019
  0.2893784734879786  0.2469260342754691  0.6947808764252559
  0.2884632036963553  0.5833651552593738  0.6997509906407694
  0.2894394714503721  0.9195651829603458  0.6947249479046659
  0.7898539855630672  0.2494129129821463  0.8085163381785954
  0.7893837303929550  0.5833652617896233  0.8076980561628941
  0.7898788476635571  0.9172467615705994  0.8085083449710256
  0.2115808178993195  0.0833688920491100  0.1935045818467373
  0.2123124746972120  0.4165914569741108  0.1942826476240179
  0.2123107035503058  0.7500784103677780  0.1942720084240900
  0.4468148603824207  0.2533718412090819  0.3725595786550229
  0.4468686864967544  0.9133237870339965  0.3725161402292798
  0.5540404184137975  0.0833485503476013  0.6263605443733783
  0.5531022439299110  0.4184145966922193  0.6308165108937754
  0.5532301806557999  0.7481697069783850  0.6308184935642767
  0.0535395425847682  0.0833674794079040  0.8748444714793344
  0.0541806959976455  0.4163855942417574  0.8713822816064343
  0.0541942497240784  0.7502841319363034  0.8713979852870407
  0.9478346410006637  0.2502320367424284  0.1305829288135202
  0.9494025290676025  0.5833608567154676  0.1295622335671376
  0.9478428253703330  0.9164422660092207  0.1305866261632675
 
  0.00000000E+00  0.00000000E+00  0.00000000E+00
  0.00000000E+00  0.00000000E+00  0.00000000E+00
  0.00000000E+00  0.00000000E+00  0.00000000E+00
  0.00000000E+00  0.00000000E+00  0.00000000E+00
  0.00000000E+00  0.00000000E+00  0.00000000E+00
  0.00000000E+00  0.00000000E+00  0.00000000E+00
  0.00000000E+00  0.00000000E+00  0.00000000E+00
  0.00000000E+00  0.00000000E+00  0.00000000E+00
  0.00000000E+00  0.00000000E+00  0.00000000E+00
  0.00000000E+00  0.00000000E+00  0.00000000E+00
  0.00000000E+00  0.00000000E+00  0.00000000E+00
  0.00000000E+00  0.00000000E+00  0.00000000E+00
  0.00000000E+00  0.00000000E+00  0.00000000E+00
  0.00000000E+00  0.00000000E+00  0.00000000E+00
  0.00000000E+00  0.00000000E+00  0.00000000E+00
  0.00000000E+00  0.00000000E+00  0.00000000E+00
  0.00000000E+00  0.00000000E+00  0.00000000E+00
  0.00000000E+00  0.00000000E+00  0.00000000E+00
  0.00000000E+00  0.00000000E+00  0.00000000E+00
  0.00000000E+00  0.00000000E+00  0.00000000E+00
  0.00000000E+00  0.00000000E+00  0.00000000E+00
  0.00000000E+00  0.00000000E+00  0.00000000E+00
  0.00000000E+00  0.00000000E+00  0.00000000E+00
  0.00000000E+00  0.00000000E+00  0.00000000E+00
  0.00000000E+00  0.00000000E+00  0.00000000E+00
  0.00000000E+00  0.00000000E+00  0.00000000E+00
  0.00000000E+00  0.00000000E+00  0.00000000E+00
  0.00000000E+00  0.00000000E+00  0.00000000E+00
  0.00000000E+00  0.00000000E+00  0.00000000E+00
  0.00000000E+00  0.00000000E+00  0.00000000E+00
  0.00000000E+00  0.00000000E+00  0.00000000E+00
  0.00000000E+00  0.00000000E+00  0.00000000E+00
  0.00000000E+00  0.00000000E+00  0.00000000E+00
  0.00000000E+00  0.00000000E+00  0.00000000E+00
  0.00000000E+00  0.00000000E+00  0.00000000E+00
  0.00000000E+00  0.00000000E+00  0.00000000E+00
  0.00000000E+00  0.00000000E+00  0.00000000E+00
  0.00000000E+00  0.00000000E+00  0.00000000E+00
  0.00000000E+00  0.00000000E+00  0.00000000E+00
  0.00000000E+00  0.00000000E+00  0.00000000E+00
  0.00000000E+00  0.00000000E+00  0.00000000E+00
  0.00000000E+00  0.00000000E+00  0.00000000E+00
  0.00000000E+00  0.00000000E+00  0.00000000E+00
  0.00000000E+00  0.00000000E+00  0.00000000E+00
  0.00000000E+00  0.00000000E+00  0.00000000E+00
  0.00000000E+00  0.00000000E+00  0.00000000E+00
  0.00000000E+00  0.00000000E+00  0.00000000E+00
  0.00000000E+00  0.00000000E+00  0.00000000E+00
  0.00000000E+00  0.00000000E+00  0.00000000E+00
  0.00000000E+00  0.00000000E+00  0.00000000E+00
  0.00000000E+00  0.00000000E+00  0.00000000E+00
  0.00000000E+00  0.00000000E+00  0.00000000E+00
  0.00000000E+00  0.00000000E+00  0.00000000E+00
  0.00000000E+00  0.00000000E+00  0.00000000E+00
  0.00000000E+00  0.00000000E+00  0.00000000E+00
  0.00000000E+00  0.00000000E+00  0.00000000E+00
  0.00000000E+00  0.00000000E+00  0.00000000E+00
  0.00000000E+00  0.00000000E+00  0.00000000E+00
  0.00000000E+00  0.00000000E+00  0.00000000E+00
  0.00000000E+00  0.00000000E+00  0.00000000E+00
