Sb2 Se3                                 
  0.99882000000000204     
    11.9454718211925162    0.0000000000000000    0.0000000000000000
     0.0000000000000000   11.9285311965989376    0.0000000000000000
     0.0000000000000000    0.0000000000000000   11.5287107052303703
   Sb   Se
    25    35
Direct
  0.4347231487243971  0.5833078300104725  0.3558785836712825
  0.5344200078381507  0.0833179829143971  0.1676395202498816
  0.5347316970174322  0.4148298682492278  0.1711230739752142
  0.5347228556249408  0.7518161460500691  0.1711323285516723
  0.4666438590080169  0.2499757616344041  0.8284635202246123
  0.4648201779563836  0.5833182321411684  0.8204072314015247
  0.4666486805917420  0.9166641985170635  0.8284906584628514
  0.9721290166715280  0.2500146058830641  0.6727787170965774
  0.9695174752458682  0.5833498420638614  0.6729595214539700
  0.9721274791420430  0.9166920514793248  0.6727758002816152
  0.0291012288675225  0.0833418402988589  0.3291817129651074
  0.0293259959460217  0.4156121267007716  0.3270998079605323
  0.0293232393412336  0.7510834426715532  0.3270888006922644
  0.6443979042023364  0.2495282592433778  0.4629831577979444
  0.6489189535757867  0.5833271118424005  0.4624226983241117
  0.6444113396899944  0.9171347400985111  0.4629886414278176
  0.3468258183414539  0.0833025681191751  0.5547812331165858
  0.3547242855973005  0.4181039720342340  0.5242901135982398
  0.3547382343610150  0.7485437789735945  0.5242829463815326
  0.8522315037459958  0.0833478295118011  0.9644285797399362
  0.8542174238746491  0.4164990444940648  0.9632938621504938
  0.8542305185912793  0.7502028012999874  0.9632994783410714
  0.1466553271395765  0.2481868901609283  0.0356627224655498
  0.1474300309013673  0.5833499157437009  0.0374649823744237
  0.1466701563432728  0.9185259323044261  0.0356666359410597
  0.6342795959110673  0.2460625393700596  0.0514628961707959
  0.6291736858543966  0.5833309960987835  0.0547055275271867
  0.6342903028702370  0.9205445966769866  0.0514895661138949
  0.3777695971878016  0.0833225150167922  0.9564214863551035
  0.3730665546341503  0.4182529981972499  0.9469712382062834
  0.3730802312763852  0.7483716359686784  0.9469983939645078
  0.8741554608434290  0.0833576444388015  0.5560193622395737
  0.8732628117154546  0.4151342901356300  0.5562765548184797
  0.8732767866047592  0.7515635606823562  0.5562669962122215
  0.1277462647713311  0.2495117324925593  0.4451560933952936
  0.1235881331934084  0.5833564004459763  0.4464047855590676
  0.1277579465583281  0.9171674928943349  0.4451483394105487
  0.7131322527896961  0.0833517543238855  0.3096696923580719
  0.7143739156377913  0.4153997854143496  0.3082082683551965
  0.7143740130806255  0.7512275616775690  0.3082220969262625
  0.2840361147311599  0.2453257833880489  0.7032423067671346
  0.2868485471952305  0.5833595337135158  0.6862928170645578
  0.2840635194328140  0.9212303329651863  0.7032366662869459
  0.7908854703704000  0.2498442228698326  0.8072047951572826
  0.7888199953673508  0.5833680700638063  0.8073630796846980
  0.7908906652311918  0.9168276721498294  0.8072000670263394
  0.2097132099610447  0.0833673628144991  0.1933638752557362
  0.2103987181260811  0.4160334881442274  0.1932060526599058
  0.2104047542228104  0.7506454631732778  0.1931992829486878
  0.4475916561399822  0.2493242307632273  0.3697639364896886
  0.4476182958095299  0.9172924118422311  0.3697466176448477
  0.5512840041537115  0.0833395608990437  0.6321629695383868
  0.5484725490499205  0.4158622672383428  0.6277320669191230
  0.5485019378318705  0.7507671982588731  0.6277041899715280
  0.0527519580598184  0.0833674429538860  0.8733443389735643
  0.0529212776159112  0.4171861093897858  0.8716968070668645
  0.0529363270287441  0.7494839987096302  0.8716988755367682
  0.9481370102922170  0.2503216700758800  0.1282944655793474
  0.9485551255363447  0.5833655659813216  0.1292442549580068
  0.9481549525756939  0.9163553383310862  0.1282968752122605

  0.00000000E+00  0.00000000E+00  0.00000000E+00
  0.00000000E+00  0.00000000E+00  0.00000000E+00
  0.00000000E+00  0.00000000E+00  0.00000000E+00
  0.00000000E+00  0.00000000E+00  0.00000000E+00
  0.00000000E+00  0.00000000E+00  0.00000000E+00
  0.00000000E+00  0.00000000E+00  0.00000000E+00
  0.00000000E+00  0.00000000E+00  0.00000000E+00
  0.00000000E+00  0.00000000E+00  0.00000000E+00
  0.00000000E+00  0.00000000E+00  0.00000000E+00
  0.00000000E+00  0.00000000E+00  0.00000000E+00
  0.00000000E+00  0.00000000E+00  0.00000000E+00
  0.00000000E+00  0.00000000E+00  0.00000000E+00
  0.00000000E+00  0.00000000E+00  0.00000000E+00
  0.00000000E+00  0.00000000E+00  0.00000000E+00
  0.00000000E+00  0.00000000E+00  0.00000000E+00
  0.00000000E+00  0.00000000E+00  0.00000000E+00
  0.00000000E+00  0.00000000E+00  0.00000000E+00
  0.00000000E+00  0.00000000E+00  0.00000000E+00
  0.00000000E+00  0.00000000E+00  0.00000000E+00
  0.00000000E+00  0.00000000E+00  0.00000000E+00
  0.00000000E+00  0.00000000E+00  0.00000000E+00
  0.00000000E+00  0.00000000E+00  0.00000000E+00
  0.00000000E+00  0.00000000E+00  0.00000000E+00
  0.00000000E+00  0.00000000E+00  0.00000000E+00
  0.00000000E+00  0.00000000E+00  0.00000000E+00
  0.00000000E+00  0.00000000E+00  0.00000000E+00
  0.00000000E+00  0.00000000E+00  0.00000000E+00
  0.00000000E+00  0.00000000E+00  0.00000000E+00
  0.00000000E+00  0.00000000E+00  0.00000000E+00
  0.00000000E+00  0.00000000E+00  0.00000000E+00
  0.00000000E+00  0.00000000E+00  0.00000000E+00
  0.00000000E+00  0.00000000E+00  0.00000000E+00
  0.00000000E+00  0.00000000E+00  0.00000000E+00
  0.00000000E+00  0.00000000E+00  0.00000000E+00
  0.00000000E+00  0.00000000E+00  0.00000000E+00
  0.00000000E+00  0.00000000E+00  0.00000000E+00
  0.00000000E+00  0.00000000E+00  0.00000000E+00
  0.00000000E+00  0.00000000E+00  0.00000000E+00
  0.00000000E+00  0.00000000E+00  0.00000000E+00
  0.00000000E+00  0.00000000E+00  0.00000000E+00
  0.00000000E+00  0.00000000E+00  0.00000000E+00
  0.00000000E+00  0.00000000E+00  0.00000000E+00
  0.00000000E+00  0.00000000E+00  0.00000000E+00
  0.00000000E+00  0.00000000E+00  0.00000000E+00
  0.00000000E+00  0.00000000E+00  0.00000000E+00
  0.00000000E+00  0.00000000E+00  0.00000000E+00
  0.00000000E+00  0.00000000E+00  0.00000000E+00
  0.00000000E+00  0.00000000E+00  0.00000000E+00
  0.00000000E+00  0.00000000E+00  0.00000000E+00
  0.00000000E+00  0.00000000E+00  0.00000000E+00
  0.00000000E+00  0.00000000E+00  0.00000000E+00
  0.00000000E+00  0.00000000E+00  0.00000000E+00
  0.00000000E+00  0.00000000E+00  0.00000000E+00
  0.00000000E+00  0.00000000E+00  0.00000000E+00
  0.00000000E+00  0.00000000E+00  0.00000000E+00
  0.00000000E+00  0.00000000E+00  0.00000000E+00
  0.00000000E+00  0.00000000E+00  0.00000000E+00
  0.00000000E+00  0.00000000E+00  0.00000000E+00
  0.00000000E+00  0.00000000E+00  0.00000000E+00
  0.00000000E+00  0.00000000E+00  0.00000000E+00
