Sb2 Se3                                 
  0.998820000000002     
    11.9454718211925162    0.0000000000000000    0.0000000000000000
     0.0000000000000000   11.9285311965989376    0.0000000000000000
     0.0000000000000000    0.0000000000000000   11.5287107052303703
   Sb   Se
    25    35
Direct
  0.3002528826402457  0.5833466454431780  0.3266072181337764
  0.5281080685762871  0.0833149819008139  0.1766851796273360
  0.5418277819901193  0.4205421316857610  0.1731141399572643
  0.5417697714627022  0.7460693450505339  0.1731167873789539
  0.4744980287232861  0.2521226551559749  0.8328797236891056
  0.4770938245735111  0.5833095591256376  0.8361034773236637
  0.4744816003578533  0.9145159896865371  0.8329070686661267
  0.9816717018312282  0.2508103938287189  0.6536049072444114
  0.9660033508330546  0.5833373613294944  0.6812298695072480
  0.9816656452035898  0.9158700585630911  0.6535917977463429
  0.0254053252767452  0.0833423295428433  0.3258239903459542
  0.0222195528263184  0.4098732546074314  0.3190880308333704
  0.0221949225467429  0.7568227415702651  0.3190684481974958
  0.6485492719079016  0.2491701220525140  0.4672552512021338
  0.6350787666082564  0.5832679938664106  0.4414347045809607
  0.6485225659874885  0.9174165227056977  0.4672773203126662
  0.3630992577391976  0.0833509607182534  0.5234472794220359
  0.3626116172494861  0.4158738122960843  0.5577684251090976
  0.3625847738619831  0.7508115378065315  0.5577513306345703
  0.8458611369604131  0.0833333892546231  0.9538966251030740
  0.8544912522821839  0.4151191235401304  0.9659326974251623
  0.8545094712852699  0.7515624914472243  0.9659497689209467
  0.1459722995219482  0.2379194493771998  0.0314462001924995
  0.1404116985948601  0.5833615815565482  0.0170390331666554
  0.1460034778723130  0.9288564731230003  0.0314709575186687
  0.6246979956438592  0.2472667640734287  0.0531179763202025
  0.6376604996343683  0.5833376161938525  0.0522628379469188
  0.6246799025441909  0.9193147057767161  0.0531536282768369
  0.3671116877642235  0.0833159110158591  0.9400404470625574
  0.3782293130407403  0.4166879913590527  0.9520749088631499
  0.3782156938329981  0.7499348655803153  0.9520796346506134
  0.8721615025445651  0.0833478052534471  0.5530560578577393
  0.8735500443913858  0.4173554694788014  0.5563994542784145
  0.8735589634109442  0.7493159711706062  0.5563813468916966
  0.1239062757298941  0.2492250043894273  0.4445890181338703
  0.1181190854226100  0.5833796070113427  0.4513370462588915
  0.1239101286624194  0.9174444988731039  0.4445679557540688
  0.7092898414486432  0.0833281883661761  0.3082866143043027
  0.7188049917964592  0.4162272751352687  0.3068436674944851
  0.7187398057837063  0.7503500993660446  0.3068780523607822
  0.2916663813118651  0.2525083287970080  0.6914093791674285
  0.2918465560992300  0.5833527132676682  0.7053202366276736
  0.2916759188953325  0.9141747090229758  0.6914084792654415
  0.7995199922555539  0.2487955773681348  0.8061092805631227
  0.7886244206368914  0.5833712047020492  0.8127327803473557
  0.7995314231896525  0.9178534597843462  0.8061106144800508
  0.2109502147437302  0.0833917971002130  0.1951618518390593
  0.2152873898835364  0.4164256945419632  0.2005970546758893
  0.2152557714009360  0.7502272833619053  0.2005511760324321
  0.4498796803182277  0.2543017213955455  0.3742109326469841
  0.4498631608133142  0.9123937081589099  0.3742108737794018
  0.5559988442896315  0.0833424903033440  0.6258685941173775
  0.5617545847650609  0.4182986962190826  0.6359204497757374
  0.5617524871999244  0.7482679796398101  0.6358388290056971
  0.0592006466636647  0.0833732409120021  0.8810195806312099
  0.0555918300595925  0.4162726131208916  0.8739433506625638
  0.0556148433128291  0.7504073215080039  0.8739595662345300
  0.9534306597783306  0.2531268395338803  0.1358275410865010
  0.9515849945499248  0.5833562744510224  0.1284118098393826
  0.9534464214688149  0.9136056685333244  0.1358287075280771
 
  0.00000000E+00  0.00000000E+00  0.00000000E+00
  0.00000000E+00  0.00000000E+00  0.00000000E+00
  0.00000000E+00  0.00000000E+00  0.00000000E+00
  0.00000000E+00  0.00000000E+00  0.00000000E+00
  0.00000000E+00  0.00000000E+00  0.00000000E+00
  0.00000000E+00  0.00000000E+00  0.00000000E+00
  0.00000000E+00  0.00000000E+00  0.00000000E+00
  0.00000000E+00  0.00000000E+00  0.00000000E+00
  0.00000000E+00  0.00000000E+00  0.00000000E+00
  0.00000000E+00  0.00000000E+00  0.00000000E+00
  0.00000000E+00  0.00000000E+00  0.00000000E+00
  0.00000000E+00  0.00000000E+00  0.00000000E+00
  0.00000000E+00  0.00000000E+00  0.00000000E+00
  0.00000000E+00  0.00000000E+00  0.00000000E+00
  0.00000000E+00  0.00000000E+00  0.00000000E+00
  0.00000000E+00  0.00000000E+00  0.00000000E+00
  0.00000000E+00  0.00000000E+00  0.00000000E+00
  0.00000000E+00  0.00000000E+00  0.00000000E+00
  0.00000000E+00  0.00000000E+00  0.00000000E+00
  0.00000000E+00  0.00000000E+00  0.00000000E+00
  0.00000000E+00  0.00000000E+00  0.00000000E+00
  0.00000000E+00  0.00000000E+00  0.00000000E+00
  0.00000000E+00  0.00000000E+00  0.00000000E+00
  0.00000000E+00  0.00000000E+00  0.00000000E+00
  0.00000000E+00  0.00000000E+00  0.00000000E+00
  0.00000000E+00  0.00000000E+00  0.00000000E+00
  0.00000000E+00  0.00000000E+00  0.00000000E+00
  0.00000000E+00  0.00000000E+00  0.00000000E+00
  0.00000000E+00  0.00000000E+00  0.00000000E+00
  0.00000000E+00  0.00000000E+00  0.00000000E+00
  0.00000000E+00  0.00000000E+00  0.00000000E+00
  0.00000000E+00  0.00000000E+00  0.00000000E+00
  0.00000000E+00  0.00000000E+00  0.00000000E+00
  0.00000000E+00  0.00000000E+00  0.00000000E+00
  0.00000000E+00  0.00000000E+00  0.00000000E+00
  0.00000000E+00  0.00000000E+00  0.00000000E+00
  0.00000000E+00  0.00000000E+00  0.00000000E+00
  0.00000000E+00  0.00000000E+00  0.00000000E+00
  0.00000000E+00  0.00000000E+00  0.00000000E+00
  0.00000000E+00  0.00000000E+00  0.00000000E+00
  0.00000000E+00  0.00000000E+00  0.00000000E+00
  0.00000000E+00  0.00000000E+00  0.00000000E+00
  0.00000000E+00  0.00000000E+00  0.00000000E+00
  0.00000000E+00  0.00000000E+00  0.00000000E+00
  0.00000000E+00  0.00000000E+00  0.00000000E+00
  0.00000000E+00  0.00000000E+00  0.00000000E+00
  0.00000000E+00  0.00000000E+00  0.00000000E+00
  0.00000000E+00  0.00000000E+00  0.00000000E+00
  0.00000000E+00  0.00000000E+00  0.00000000E+00
  0.00000000E+00  0.00000000E+00  0.00000000E+00
  0.00000000E+00  0.00000000E+00  0.00000000E+00
  0.00000000E+00  0.00000000E+00  0.00000000E+00
  0.00000000E+00  0.00000000E+00  0.00000000E+00
  0.00000000E+00  0.00000000E+00  0.00000000E+00
  0.00000000E+00  0.00000000E+00  0.00000000E+00
  0.00000000E+00  0.00000000E+00  0.00000000E+00
  0.00000000E+00  0.00000000E+00  0.00000000E+00
  0.00000000E+00  0.00000000E+00  0.00000000E+00
  0.00000000E+00  0.00000000E+00  0.00000000E+00
  0.00000000E+00  0.00000000E+00  0.00000000E+00
