Sb2 Se3                                 
  0.998820000000002     
    11.9454718211925162    0.0000000000000000    0.0000000000000000
     0.0000000000000000   11.9285311965989376    0.0000000000000000
     0.0000000000000000    0.0000000000000000   11.5287107052303703
   Sb   Se
    25    35
Direct
  0.3505816886023627  0.5833624321498101  0.2974225470433363
  0.5289723983957858  0.0832409731278188  0.1717983436788627
  0.5292606111906185  0.4196914076998521  0.1572886164294151
  0.5291832236766172  0.7467988484889760  0.1571997946878342
  0.4766329480664902  0.2494038681226503  0.8286052438135850
  0.4799822661139623  0.5832121537829937  0.8277893910951949
  0.4766043519955636  0.9171130747011218  0.8286283837717351
  0.9733730761211713  0.2502544107046734  0.6643942074155934
  0.9681582323309296  0.5834298303826281  0.6738891693382599
  0.9733896167169829  0.9166275514607015  0.6643447925096576
  0.0299689190979235  0.0834409516147844  0.3268623107301127
  0.0308699716933427  0.4184251879110936  0.3351385705309934
  0.0307847719745258  0.7484302358789090  0.3350879549155525
  0.6461038715611105  0.2511655833398095  0.4628744152228730
  0.6183643814216345  0.5831058776618827  0.4339410056533185
  0.6460286771918741  0.9150992694558902  0.4629138520793741
  0.3618351434760394  0.0832536625396715  0.5249566411993671
  0.3539974428864811  0.4153233791459099  0.5547298505952394
  0.3539113651113805  0.7511790714278818  0.5547134024872123
  0.8505006462913938  0.0834454125725295  0.9674750037674953
  0.8580057843204396  0.4167652026221111  0.9670608712033261
  0.8580369642874830  0.7501224161794654  0.9670986821799779
  0.1462223857838098  0.2410230778281517  0.0328813824485153
  0.1443874931297284  0.5834802768940907  0.0270956530316874
  0.1462996810363319  0.9259121323121404  0.0329970651039450
  0.6294456331447347  0.2438723661969270  0.0510441463193833
  0.6345993365228930  0.5832582568696351  0.0510992693957023
  0.6294628307371106  0.9225778718733887  0.0510734280431508
  0.3707330328120374  0.0832469549354361  0.9408629224560620
  0.3809398952909259  0.4166950390440771  0.9495435384558507
  0.3809226826633182  0.7497917123491867  0.9495423297362315
  0.8716466485391006  0.0834384091483363  0.5538960982239773
  0.8701827323380561  0.4149206340447615  0.5574211436336391
  0.8701964629707412  0.7519632223233356  0.5573957431035592
  0.1269438385009497  0.2495074534373513  0.4491171922866673
  0.1206183557930346  0.5834620710556399  0.4605412693794723
  0.1269335747674550  0.9173241207442033  0.4490359901580150
  0.7088845969327446  0.0832260674964709  0.3076957352249534
  0.7077838075014419  0.4199976640119101  0.3052461603452893
  0.7076714235532476  0.7463224438203178  0.3053077679992557
  0.2916042636416502  0.2512577947364980  0.6951803223836592
  0.2904245034536232  0.5832763018514390  0.7061495665840460
  0.2916020705010127  0.9152738308406008  0.6951826276573201
  0.7973773850215384  0.2476602865085326  0.8117783264733526
  0.7906302862080443  0.5834743120064503  0.8123352883628130
  0.7974408191331541  0.9191360028651108  0.8117889813598012
  0.2131946387223842  0.0834923405138012  0.1949785677590824
  0.2183195605145053  0.4212687539864441  0.2027736299330691
  0.2182282362383978  0.7454968956283755  0.2026797583698211
  0.4462334660120862  0.2529791698454418  0.3736942586070607
  0.4461827975475554  0.9135365655997709  0.3736732569929799
  0.5552102712021303  0.0832537157165413  0.6266238960287296
  0.5558517383524449  0.4188125357002427  0.6333171255901017
  0.5558204133649238  0.7475808677055967  0.6331742044223447
  0.0594875637050911  0.0834433697254352  0.8821762025754052
  0.0574716025941565  0.4164185176938930  0.8746239464487578
  0.0575346998480496  0.7504193290536925  0.8747019290318075
  0.9533575805601590  0.2525712410593418  0.1344963439034259
  0.9522190858076225  0.5834161685989949  0.1301189117824350
  0.9533882530297040  0.9143214250073579  0.1345429370403718
 
  0.00000000E+00  0.00000000E+00  0.00000000E+00
  0.00000000E+00  0.00000000E+00  0.00000000E+00
  0.00000000E+00  0.00000000E+00  0.00000000E+00
  0.00000000E+00  0.00000000E+00  0.00000000E+00
  0.00000000E+00  0.00000000E+00  0.00000000E+00
  0.00000000E+00  0.00000000E+00  0.00000000E+00
  0.00000000E+00  0.00000000E+00  0.00000000E+00
  0.00000000E+00  0.00000000E+00  0.00000000E+00
  0.00000000E+00  0.00000000E+00  0.00000000E+00
  0.00000000E+00  0.00000000E+00  0.00000000E+00
  0.00000000E+00  0.00000000E+00  0.00000000E+00
  0.00000000E+00  0.00000000E+00  0.00000000E+00
  0.00000000E+00  0.00000000E+00  0.00000000E+00
  0.00000000E+00  0.00000000E+00  0.00000000E+00
  0.00000000E+00  0.00000000E+00  0.00000000E+00
  0.00000000E+00  0.00000000E+00  0.00000000E+00
  0.00000000E+00  0.00000000E+00  0.00000000E+00
  0.00000000E+00  0.00000000E+00  0.00000000E+00
  0.00000000E+00  0.00000000E+00  0.00000000E+00
  0.00000000E+00  0.00000000E+00  0.00000000E+00
  0.00000000E+00  0.00000000E+00  0.00000000E+00
  0.00000000E+00  0.00000000E+00  0.00000000E+00
  0.00000000E+00  0.00000000E+00  0.00000000E+00
  0.00000000E+00  0.00000000E+00  0.00000000E+00
  0.00000000E+00  0.00000000E+00  0.00000000E+00
  0.00000000E+00  0.00000000E+00  0.00000000E+00
  0.00000000E+00  0.00000000E+00  0.00000000E+00
  0.00000000E+00  0.00000000E+00  0.00000000E+00
  0.00000000E+00  0.00000000E+00  0.00000000E+00
  0.00000000E+00  0.00000000E+00  0.00000000E+00
  0.00000000E+00  0.00000000E+00  0.00000000E+00
  0.00000000E+00  0.00000000E+00  0.00000000E+00
  0.00000000E+00  0.00000000E+00  0.00000000E+00
  0.00000000E+00  0.00000000E+00  0.00000000E+00
  0.00000000E+00  0.00000000E+00  0.00000000E+00
  0.00000000E+00  0.00000000E+00  0.00000000E+00
  0.00000000E+00  0.00000000E+00  0.00000000E+00
  0.00000000E+00  0.00000000E+00  0.00000000E+00
  0.00000000E+00  0.00000000E+00  0.00000000E+00
  0.00000000E+00  0.00000000E+00  0.00000000E+00
  0.00000000E+00  0.00000000E+00  0.00000000E+00
  0.00000000E+00  0.00000000E+00  0.00000000E+00
  0.00000000E+00  0.00000000E+00  0.00000000E+00
  0.00000000E+00  0.00000000E+00  0.00000000E+00
  0.00000000E+00  0.00000000E+00  0.00000000E+00
  0.00000000E+00  0.00000000E+00  0.00000000E+00
  0.00000000E+00  0.00000000E+00  0.00000000E+00
  0.00000000E+00  0.00000000E+00  0.00000000E+00
  0.00000000E+00  0.00000000E+00  0.00000000E+00
  0.00000000E+00  0.00000000E+00  0.00000000E+00
  0.00000000E+00  0.00000000E+00  0.00000000E+00
  0.00000000E+00  0.00000000E+00  0.00000000E+00
  0.00000000E+00  0.00000000E+00  0.00000000E+00
  0.00000000E+00  0.00000000E+00  0.00000000E+00
  0.00000000E+00  0.00000000E+00  0.00000000E+00
  0.00000000E+00  0.00000000E+00  0.00000000E+00
  0.00000000E+00  0.00000000E+00  0.00000000E+00
  0.00000000E+00  0.00000000E+00  0.00000000E+00
  0.00000000E+00  0.00000000E+00  0.00000000E+00
  0.00000000E+00  0.00000000E+00  0.00000000E+00
