Sb2 Se3                                 
  0.99882000000000204     
    11.9454718211925162    0.0000000000000000    0.0000000000000000
     0.0000000000000000   11.9285311965989376    0.0000000000000000
     0.0000000000000000    0.0000000000000000   11.5287107052303703
   Sb   Se
    25    35
Direct
  0.4257581891372950  0.5832917783170370  0.3529729367240000
  0.5300398943436816  0.0833200224201358  0.1708675194112963
  0.5342434067258923  0.4171670273792111  0.1689307045272492
  0.5342064853183696  0.7494892089559981  0.1689702217554463
  0.4707633769034880  0.2495244975145096  0.8286531161864767
  0.4714919010311892  0.5833208376744372  0.8267631298995397
  0.4707855194480445  0.9171152658541850  0.8287000615462191
  0.9704914753077025  0.2501850258050865  0.6715162467401264
  0.9688894425484297  0.5833457758595662  0.6709929447408541
  0.9704910390770444  0.9165114691691941  0.6715094530014332
  0.0307839373903145  0.0833402528873210  0.3282468475843258
  0.0303013871610588  0.4161521888232520  0.3274010502477266
  0.0302995162489040  0.7505379368454634  0.3273910661881985
  0.6454376280973959  0.2499842639901078  0.4633008363991374
  0.6453035200370478  0.5833253584386691  0.4562799960749886
  0.6454525736415454  0.9166978086293589  0.4633007236969980
  0.3542581110071716  0.0833397203238652  0.5381590376821275
  0.3518626627043467  0.4170582275020810  0.5419251171729731
  0.3519091003709145  0.7496151458538783  0.5419471073294970
  0.8525855876293235  0.0833339648253466  0.9642967753283593
  0.8551236354503013  0.4166433020013170  0.9625097436766888
  0.8551355947539216  0.7500418036795126  0.9625199462980406
  0.1456592684163661  0.2484919184493253  0.0360951126130079
  0.1473390921530842  0.5833436288967651  0.0379903178944787
  0.1456740331810913  0.9182068463494271  0.0361021630013580
  0.6299477123914066  0.2453420712147337  0.0520282448842111
  0.6297736022263379  0.5833445150152250  0.0517923877803254
  0.6299551987207466  0.9212848788360369  0.0520510903332186
  0.3732773939023863  0.0833084393718716  0.9483529986638639
  0.3746374920402306  0.4166216307207690  0.9464678687236797
  0.3746485351469593  0.7500169920836631  0.9464893514104246
  0.8728838417502931  0.0833532457467935  0.5545070686316976
  0.8718409120890177  0.4154503275988108  0.5553346244767868
  0.8718552908222049  0.7512387983801277  0.5553229771896631
  0.1277782821076772  0.2500522717576547  0.4461722549395594
  0.1235810613959993  0.5833524464700598  0.4482831625626045
  0.1277906228151369  0.9166213656858385  0.4461624393111744
  0.7099930057137326  0.0833562482931868  0.3087703383787059
  0.7135953702885932  0.4157462739277150  0.3054794163104684
  0.7135857417143125  0.7508856262614506  0.3054991914058524
  0.2881771437833997  0.2455986789113712  0.6968868528985116
  0.2872552982657725  0.5833617796905525  0.6956942025891817
  0.2882143187406298  0.9209501149758043  0.6968601879599551
  0.7900811516361577  0.2496224091683890  0.8075545599854699
  0.7891178194739857  0.5833640166956625  0.8073114073367841
  0.7900888775732801  0.9170367891738571  0.8075485449666555
  0.2111259671820274  0.0833659128587892  0.1932181538800741
  0.2111827043002280  0.4164045850933781  0.1934628167258522
  0.2111901704146384  0.7502617433926326  0.1934562905723992
  0.4469132946117738  0.2521330404541753  0.3723088015344010
  0.4469430222849954  0.9145355895288521  0.3722919855308766
  0.5537521608061290  0.0833461201525510  0.6279258140472943
  0.5509844847293147  0.4176311023459540  0.6304571984598150
  0.5510414211827029  0.7489694100672938  0.6304284712830519
  0.0529284458130374  0.0833633896781767  0.8737803723301206
  0.0534676826852064  0.4165674093267416  0.8713169061287535
  0.0534817455306190  0.7501012606954403  0.8713242899543198
  0.9478935790295620  0.2501469477065233  0.1294661404175766
  0.9488223362186531  0.5833617068757039  0.1291799491400797
  0.9479079345289364  0.9165195853991569  0.1294714305360559

  0.00000000E+00  0.00000000E+00  0.00000000E+00
  0.00000000E+00  0.00000000E+00  0.00000000E+00
  0.00000000E+00  0.00000000E+00  0.00000000E+00
  0.00000000E+00  0.00000000E+00  0.00000000E+00
  0.00000000E+00  0.00000000E+00  0.00000000E+00
  0.00000000E+00  0.00000000E+00  0.00000000E+00
  0.00000000E+00  0.00000000E+00  0.00000000E+00
  0.00000000E+00  0.00000000E+00  0.00000000E+00
  0.00000000E+00  0.00000000E+00  0.00000000E+00
  0.00000000E+00  0.00000000E+00  0.00000000E+00
  0.00000000E+00  0.00000000E+00  0.00000000E+00
  0.00000000E+00  0.00000000E+00  0.00000000E+00
  0.00000000E+00  0.00000000E+00  0.00000000E+00
  0.00000000E+00  0.00000000E+00  0.00000000E+00
  0.00000000E+00  0.00000000E+00  0.00000000E+00
  0.00000000E+00  0.00000000E+00  0.00000000E+00
  0.00000000E+00  0.00000000E+00  0.00000000E+00
  0.00000000E+00  0.00000000E+00  0.00000000E+00
  0.00000000E+00  0.00000000E+00  0.00000000E+00
  0.00000000E+00  0.00000000E+00  0.00000000E+00
  0.00000000E+00  0.00000000E+00  0.00000000E+00
  0.00000000E+00  0.00000000E+00  0.00000000E+00
  0.00000000E+00  0.00000000E+00  0.00000000E+00
  0.00000000E+00  0.00000000E+00  0.00000000E+00
  0.00000000E+00  0.00000000E+00  0.00000000E+00
  0.00000000E+00  0.00000000E+00  0.00000000E+00
  0.00000000E+00  0.00000000E+00  0.00000000E+00
  0.00000000E+00  0.00000000E+00  0.00000000E+00
  0.00000000E+00  0.00000000E+00  0.00000000E+00
  0.00000000E+00  0.00000000E+00  0.00000000E+00
  0.00000000E+00  0.00000000E+00  0.00000000E+00
  0.00000000E+00  0.00000000E+00  0.00000000E+00
  0.00000000E+00  0.00000000E+00  0.00000000E+00
  0.00000000E+00  0.00000000E+00  0.00000000E+00
  0.00000000E+00  0.00000000E+00  0.00000000E+00
  0.00000000E+00  0.00000000E+00  0.00000000E+00
  0.00000000E+00  0.00000000E+00  0.00000000E+00
  0.00000000E+00  0.00000000E+00  0.00000000E+00
  0.00000000E+00  0.00000000E+00  0.00000000E+00
  0.00000000E+00  0.00000000E+00  0.00000000E+00
  0.00000000E+00  0.00000000E+00  0.00000000E+00
  0.00000000E+00  0.00000000E+00  0.00000000E+00
  0.00000000E+00  0.00000000E+00  0.00000000E+00
  0.00000000E+00  0.00000000E+00  0.00000000E+00
  0.00000000E+00  0.00000000E+00  0.00000000E+00
  0.00000000E+00  0.00000000E+00  0.00000000E+00
  0.00000000E+00  0.00000000E+00  0.00000000E+00
  0.00000000E+00  0.00000000E+00  0.00000000E+00
  0.00000000E+00  0.00000000E+00  0.00000000E+00
  0.00000000E+00  0.00000000E+00  0.00000000E+00
  0.00000000E+00  0.00000000E+00  0.00000000E+00
  0.00000000E+00  0.00000000E+00  0.00000000E+00
  0.00000000E+00  0.00000000E+00  0.00000000E+00
  0.00000000E+00  0.00000000E+00  0.00000000E+00
  0.00000000E+00  0.00000000E+00  0.00000000E+00
  0.00000000E+00  0.00000000E+00  0.00000000E+00
  0.00000000E+00  0.00000000E+00  0.00000000E+00
  0.00000000E+00  0.00000000E+00  0.00000000E+00
  0.00000000E+00  0.00000000E+00  0.00000000E+00
  0.00000000E+00  0.00000000E+00  0.00000000E+00
