Sb2 Se3                                 
  0.99882000000000204     
    11.9454718211925162    0.0000000000000000    0.0000000000000000
     0.0000000000000000   11.9285311965989376    0.0000000000000000
     0.0000000000000000    0.0000000000000000   11.5287107052303703
   Sb   Se
    23    37
Direct
  0.5298430292565484  0.0833286007715464  0.1648623219991114
  0.5328392336123420  0.4188441745529894  0.1731196861313990
  0.5328402364477101  0.7478271855035622  0.1731323931489358
  0.4737648941736417  0.2489909798267776  0.8173349815114034
  0.4737754779302128  0.9177073927578956  0.8173493471560092
  0.9692052772602497  0.2498608250959790  0.6724907120267046
  0.9665012910516201  0.5833274088309537  0.6780808621198996
  0.9692104645400050  0.9167992532079597  0.6724789104622334
  0.0313728748261960  0.0833234864050478  0.3266632774130491
  0.0352106725966868  0.4175057120759834  0.3299931346385176
  0.0352084132837230  0.7491499554112647  0.3299807332696480
  0.6501052233727334  0.2524303903376147  0.4610027128834578
  0.6452368633397323  0.5833230246277959  0.4717878569201509
  0.6501128615193782  0.9142232442110747  0.4610007946509792
  0.3506210415040834  0.0833233394597260  0.5423019410445198
  0.3579634348900586  0.4105736085509112  0.5276580569842865
  0.3579669216772787  0.7560736478220801  0.5276763053014757
  0.8537669484680418  0.0833220963742468  0.9634027834827484
  0.8538941685017127  0.4173187400785886  0.9651230724306998
  0.8539086703938739  0.7493428435640601  0.9651265467217012
  0.1460236292542062  0.2493186208336981  0.0362624951207935
  0.1458912834469575  0.5833170084826791  0.0386749431625719
  0.1460345929142016  0.9173403895255340  0.0362625059261098
  0.6264213801916798  0.2514263726960796  0.0527828098312500
  0.6288912795179288  0.5833452248326720  0.0561299488849235
  0.6264322668556458  0.9152385867273928  0.0527851041710702
  0.3782768448911972  0.0833516430742090  0.9409744579249087
  0.3708840616250684  0.4289896411777920  0.9419502724243453
  0.3708944786377115  0.7377477285938532  0.9419621992213668
  0.8734239942623905  0.0833364141930489  0.5535913867685694
  0.8736489806171884  0.4163103162412952  0.5547597700034802
  0.8736615819410454  0.7503445168724432  0.5547508718510461
  0.1294832761572614  0.2489113025888544  0.4458399572292489
  0.1328768992565104  0.5833404462191291  0.4501641195294735
  0.1294959560423941  0.9177311975526624  0.4458248126342913
  0.7087602765650823  0.0833442651892743  0.3061230783251812
  0.7116116136852352  0.4153788186611350  0.3096759421128979
  0.7116228197543354  0.7512765982882788  0.3096827758128919
  0.2881877952585649  0.2529422997726291  0.6931027438733276
  0.2819744423309136  0.5833712345821094  0.6878733201979623
  0.2882024943248757  0.9137353303399876  0.6931149961687531
  0.7893736115320110  0.2492544503017319  0.8083316018175571
  0.7854899829707663  0.5833538859910768  0.8093548789764381
  0.7893880424742182  0.9173769279364772  0.8083245216272343
  0.2121653890421971  0.0833504533465782  0.1909502154844131
  0.2139961504573114  0.4171111158627124  0.1925498741144033
  0.2140000283769518  0.7495186773282803  0.1925373979409357
  0.4477541625881620  0.2477890396405371  0.3760168000574205
  0.4503553893939395  0.5833542421513707  0.3710984087533602
  0.4477673584146885  0.9188410282979727  0.3760197907103205
  0.5480695207228128  0.0833688525318536  0.6414090943848608
  0.5519618909352689  0.4185587611505744  0.6289285200289905
  0.5519711523279128  0.7480680675418800  0.6289396757392873
  0.0532322091206070  0.0833514823740453  0.8734614567028931
  0.0509243045816856  0.4169116788536318  0.8713699341005703
  0.0509450170000728  0.7497241610223391  0.8713783342622885
  0.9493891025896357  0.2512868048568589  0.1303640935954584
  0.9469447005208468  0.5833465669139399  0.1305413148704939
  0.9494047873158399  0.9153703337052185  0.1303656424846473
  0.4308192534588800  0.5833696042821114  0.8252034698770856

  0.00000000E+00  0.00000000E+00  0.00000000E+00
  0.00000000E+00  0.00000000E+00  0.00000000E+00
  0.00000000E+00  0.00000000E+00  0.00000000E+00
  0.00000000E+00  0.00000000E+00  0.00000000E+00
  0.00000000E+00  0.00000000E+00  0.00000000E+00
  0.00000000E+00  0.00000000E+00  0.00000000E+00
  0.00000000E+00  0.00000000E+00  0.00000000E+00
  0.00000000E+00  0.00000000E+00  0.00000000E+00
  0.00000000E+00  0.00000000E+00  0.00000000E+00
  0.00000000E+00  0.00000000E+00  0.00000000E+00
  0.00000000E+00  0.00000000E+00  0.00000000E+00
  0.00000000E+00  0.00000000E+00  0.00000000E+00
  0.00000000E+00  0.00000000E+00  0.00000000E+00
  0.00000000E+00  0.00000000E+00  0.00000000E+00
  0.00000000E+00  0.00000000E+00  0.00000000E+00
  0.00000000E+00  0.00000000E+00  0.00000000E+00
  0.00000000E+00  0.00000000E+00  0.00000000E+00
  0.00000000E+00  0.00000000E+00  0.00000000E+00
  0.00000000E+00  0.00000000E+00  0.00000000E+00
  0.00000000E+00  0.00000000E+00  0.00000000E+00
  0.00000000E+00  0.00000000E+00  0.00000000E+00
  0.00000000E+00  0.00000000E+00  0.00000000E+00
  0.00000000E+00  0.00000000E+00  0.00000000E+00
  0.00000000E+00  0.00000000E+00  0.00000000E+00
  0.00000000E+00  0.00000000E+00  0.00000000E+00
  0.00000000E+00  0.00000000E+00  0.00000000E+00
  0.00000000E+00  0.00000000E+00  0.00000000E+00
  0.00000000E+00  0.00000000E+00  0.00000000E+00
  0.00000000E+00  0.00000000E+00  0.00000000E+00
  0.00000000E+00  0.00000000E+00  0.00000000E+00
  0.00000000E+00  0.00000000E+00  0.00000000E+00
  0.00000000E+00  0.00000000E+00  0.00000000E+00
  0.00000000E+00  0.00000000E+00  0.00000000E+00
  0.00000000E+00  0.00000000E+00  0.00000000E+00
  0.00000000E+00  0.00000000E+00  0.00000000E+00
  0.00000000E+00  0.00000000E+00  0.00000000E+00
  0.00000000E+00  0.00000000E+00  0.00000000E+00
  0.00000000E+00  0.00000000E+00  0.00000000E+00
  0.00000000E+00  0.00000000E+00  0.00000000E+00
  0.00000000E+00  0.00000000E+00  0.00000000E+00
  0.00000000E+00  0.00000000E+00  0.00000000E+00
  0.00000000E+00  0.00000000E+00  0.00000000E+00
  0.00000000E+00  0.00000000E+00  0.00000000E+00
  0.00000000E+00  0.00000000E+00  0.00000000E+00
  0.00000000E+00  0.00000000E+00  0.00000000E+00
  0.00000000E+00  0.00000000E+00  0.00000000E+00
  0.00000000E+00  0.00000000E+00  0.00000000E+00
  0.00000000E+00  0.00000000E+00  0.00000000E+00
  0.00000000E+00  0.00000000E+00  0.00000000E+00
  0.00000000E+00  0.00000000E+00  0.00000000E+00
  0.00000000E+00  0.00000000E+00  0.00000000E+00
  0.00000000E+00  0.00000000E+00  0.00000000E+00
  0.00000000E+00  0.00000000E+00  0.00000000E+00
  0.00000000E+00  0.00000000E+00  0.00000000E+00
  0.00000000E+00  0.00000000E+00  0.00000000E+00
  0.00000000E+00  0.00000000E+00  0.00000000E+00
  0.00000000E+00  0.00000000E+00  0.00000000E+00
  0.00000000E+00  0.00000000E+00  0.00000000E+00
  0.00000000E+00  0.00000000E+00  0.00000000E+00
  0.00000000E+00  0.00000000E+00  0.00000000E+00
