Sb2 Se3                                 
  0.99882000000000204     
    11.9454718211925162    0.0000000000000000    0.0000000000000000
     0.0000000000000000   11.9285311965989376    0.0000000000000000
     0.0000000000000000    0.0000000000000000   11.5287107052303703
   Sb   Se
    23    37
Direct
  0.5334183698027383  0.0833499327341207  0.1688388793232554
  0.5314304586183713  0.4181062577111669  0.1717618545573897
  0.5313931205008146  0.7485837048242966  0.1716761924961900
  0.4758656540128643  0.2480993074624376  0.8239380372446814
  0.4757710295892517  0.9185919136029701  0.8241224220267958
  0.9710373408298310  0.2493695524864108  0.6728350960193409
  0.9687481833180072  0.5833123713920794  0.6768610408271990
  0.9710467374059976  0.9173125979786663  0.6728346312711088
  0.0314538364341897  0.0833386466511017  0.3253029781548975
  0.0315338219516021  0.4172087271423878  0.3309972323410737
  0.0314827878863760  0.7494494713677039  0.3309958329904569
  0.6481876289384896  0.2534956113476575  0.4653290870841116
  0.6485151056912423  0.5833500220775520  0.4626384856740300
  0.6482188029291737  0.9131708013320756  0.4652543401002869
  0.3546121987865103  0.0833277905303788  0.5348649094009571
  0.3606679711579222  0.4126173260065634  0.5333045958636804
  0.3607372320942086  0.7540666670843386  0.5333118954206426
  0.8549394276393837  0.0833257331940702  0.9649915426419434
  0.8521838867746886  0.4163452408207400  0.9635027918279470
  0.8522233828981691  0.7503087364323339  0.9635081221615296
  0.1464827111895367  0.2510176940019330  0.0370024893604014
  0.1437351257931311  0.5833109781263973  0.0393194723224279
  0.1465254696487444  0.9155786751822870  0.0370268241876320
  0.6283575545606336  0.2498100575155375  0.0523654998715897
  0.6168038112287910  0.5833407996848198  0.0457564219677791
  0.6284002864697691  0.9168695727042547  0.0523968213952757
  0.3773424696479877  0.0834163767702902  0.9401094863113332
  0.3669524943220985  0.4002992233075832  0.9459537420003176
  0.3669415610607344  0.7665052542772508  0.9461314719251197
  0.8741078286360646  0.0833447186523971  0.5542001980283707
  0.8745422472026078  0.4165392059354440  0.5553283063579264
  0.8745716567405000  0.7501206472300115  0.5553474307499725
  0.1285919195496013  0.2494843911185547  0.4452985290025608
  0.1309747426905292  0.5833435850757592  0.4477627705201979
  0.1285788877280344  0.9171754651041518  0.4452545190155652
  0.7091654800035284  0.0833566222068901  0.3082044209479444
  0.7123085642790081  0.4167344245751922  0.3047100432489891
  0.7123024330518231  0.7498931438590066  0.3047216811806533
  0.2936782984718169  0.2490956195054018  0.6897502159987363
  0.2823251632682431  0.5833389859813367  0.6971318954992751
  0.2936897562686528  0.9175393294492548  0.6897513463258141
  0.7903146095255634  0.2494309630505480  0.8072378147915823
  0.7869887428890869  0.5833554344030031  0.8080518657007446
  0.7903423921538332  0.9172149256309531  0.8072467425478500
  0.2128462546413128  0.0833532876804669  0.1916965616268831
  0.2107847100720251  0.4171716496308061  0.1936473847428596
  0.2107512630064831  0.7494645141666763  0.1936398876092732
  0.4483516681508569  0.2525134894690383  0.3731332888351181
  0.4511512013615954  0.5833421601086228  0.3677946336935072
  0.4483511671966411  0.9141566878207009  0.3731419549937639
  0.5544711442494055  0.0833538117562044  0.6250197350262068
  0.5562280704108715  0.4196461028231929  0.6273109724071784
  0.5562934857915106  0.7469630761690413  0.6272944495540344
  0.0532573923844289  0.0833593105459156  0.8721143267928553
  0.0509029665364098  0.4166436566614768  0.8722984779899101
  0.0509489624299406  0.7500077537599090  0.8723127557555718
  0.9478726140959367  0.2503335405261208  0.1298711615533283
  0.9459603819086528  0.5833374484929787  0.1296795656100720
  0.9478801110224793  0.9163353548484253  0.1298904663695439
  0.4164574231013094  0.5831716500130971  0.8482243677543436

  0.00000000E+00  0.00000000E+00  0.00000000E+00
  0.00000000E+00  0.00000000E+00  0.00000000E+00
  0.00000000E+00  0.00000000E+00  0.00000000E+00
  0.00000000E+00  0.00000000E+00  0.00000000E+00
  0.00000000E+00  0.00000000E+00  0.00000000E+00
  0.00000000E+00  0.00000000E+00  0.00000000E+00
  0.00000000E+00  0.00000000E+00  0.00000000E+00
  0.00000000E+00  0.00000000E+00  0.00000000E+00
  0.00000000E+00  0.00000000E+00  0.00000000E+00
  0.00000000E+00  0.00000000E+00  0.00000000E+00
  0.00000000E+00  0.00000000E+00  0.00000000E+00
  0.00000000E+00  0.00000000E+00  0.00000000E+00
  0.00000000E+00  0.00000000E+00  0.00000000E+00
  0.00000000E+00  0.00000000E+00  0.00000000E+00
  0.00000000E+00  0.00000000E+00  0.00000000E+00
  0.00000000E+00  0.00000000E+00  0.00000000E+00
  0.00000000E+00  0.00000000E+00  0.00000000E+00
  0.00000000E+00  0.00000000E+00  0.00000000E+00
  0.00000000E+00  0.00000000E+00  0.00000000E+00
  0.00000000E+00  0.00000000E+00  0.00000000E+00
  0.00000000E+00  0.00000000E+00  0.00000000E+00
  0.00000000E+00  0.00000000E+00  0.00000000E+00
  0.00000000E+00  0.00000000E+00  0.00000000E+00
  0.00000000E+00  0.00000000E+00  0.00000000E+00
  0.00000000E+00  0.00000000E+00  0.00000000E+00
  0.00000000E+00  0.00000000E+00  0.00000000E+00
  0.00000000E+00  0.00000000E+00  0.00000000E+00
  0.00000000E+00  0.00000000E+00  0.00000000E+00
  0.00000000E+00  0.00000000E+00  0.00000000E+00
  0.00000000E+00  0.00000000E+00  0.00000000E+00
  0.00000000E+00  0.00000000E+00  0.00000000E+00
  0.00000000E+00  0.00000000E+00  0.00000000E+00
  0.00000000E+00  0.00000000E+00  0.00000000E+00
  0.00000000E+00  0.00000000E+00  0.00000000E+00
  0.00000000E+00  0.00000000E+00  0.00000000E+00
  0.00000000E+00  0.00000000E+00  0.00000000E+00
  0.00000000E+00  0.00000000E+00  0.00000000E+00
  0.00000000E+00  0.00000000E+00  0.00000000E+00
  0.00000000E+00  0.00000000E+00  0.00000000E+00
  0.00000000E+00  0.00000000E+00  0.00000000E+00
  0.00000000E+00  0.00000000E+00  0.00000000E+00
  0.00000000E+00  0.00000000E+00  0.00000000E+00
  0.00000000E+00  0.00000000E+00  0.00000000E+00
  0.00000000E+00  0.00000000E+00  0.00000000E+00
  0.00000000E+00  0.00000000E+00  0.00000000E+00
  0.00000000E+00  0.00000000E+00  0.00000000E+00
  0.00000000E+00  0.00000000E+00  0.00000000E+00
  0.00000000E+00  0.00000000E+00  0.00000000E+00
  0.00000000E+00  0.00000000E+00  0.00000000E+00
  0.00000000E+00  0.00000000E+00  0.00000000E+00
  0.00000000E+00  0.00000000E+00  0.00000000E+00
  0.00000000E+00  0.00000000E+00  0.00000000E+00
  0.00000000E+00  0.00000000E+00  0.00000000E+00
  0.00000000E+00  0.00000000E+00  0.00000000E+00
  0.00000000E+00  0.00000000E+00  0.00000000E+00
  0.00000000E+00  0.00000000E+00  0.00000000E+00
  0.00000000E+00  0.00000000E+00  0.00000000E+00
  0.00000000E+00  0.00000000E+00  0.00000000E+00
  0.00000000E+00  0.00000000E+00  0.00000000E+00
  0.00000000E+00  0.00000000E+00  0.00000000E+00
