Sb2 Se3                                 
  0.99882000000000204     
    11.9454718211925162    0.0000000000000000    0.0000000000000000
     0.0000000000000000   11.9285311965989376    0.0000000000000000
     0.0000000000000000    0.0000000000000000   11.5287107052303703
   Sb   Se
    23    37
Direct
  0.5297220764020293  0.0833288153937465  0.1626583784636934
  0.5319526701542244  0.4191624490836423  0.1705281647404334
  0.5319618672437885  0.7475070516439259  0.1705503197177410
  0.4744439686482463  0.2492614414671059  0.8177432828020351
  0.4744627987586628  0.9174274001664874  0.8177669870488651
  0.9723157677302887  0.2500568486606063  0.6714238036705298
  0.9694969414508199  0.5833300764078820  0.6769130046199110
  0.9723303358056262  0.9166101006262835  0.6714113830012058
  0.0284493590204985  0.0833241930748679  0.3284263995613283
  0.0308668326539570  0.4177654751997478  0.3320643829078469
  0.0308751737746830  0.7488954351057223  0.3320467721190284
  0.6483384823070300  0.2526828821174967  0.4586386561329739
  0.6434527174519523  0.5833148660878571  0.4686356886821624
  0.6483568061094243  0.9139612241831440  0.4586337100762231
  0.3530921738650381  0.0833213861456899  0.5434705554755270
  0.3592291526904372  0.4110980788432189  0.5294296954000717
  0.3592424513404870  0.7555542632180321  0.5294455040485269
  0.8563126576984835  0.0833245894087801  0.9616337907605428
  0.8555713243515471  0.4173314973752396  0.9620247433431570
  0.8556015224970815  0.7493355924200124  0.9620333498037723
  0.1447330919950140  0.2494609094734518  0.0394578362739005
  0.1440834350093208  0.5833169156355373  0.0424554141548327
  0.1447574387659148  0.9172043243143020  0.0394531493140799
  0.6273532169064999  0.2517436515212498  0.0515110583255462
  0.6284632519068801  0.5833430362698571  0.0535573882690665
  0.6273719027385595  0.9149235981106493  0.0515242825542474
  0.3790085731898195  0.0833447633072105  0.9420533566637077
  0.3704631517628966  0.4288065779418418  0.9435648153619061
  0.3704842654240383  0.7379379154076612  0.9435864759590310
  0.8746690370416325  0.0833362193162211  0.5537254671149192
  0.8745276153913272  0.4163902194787880  0.5547654345469305
  0.8745469775995622  0.7502712134050943  0.5547566392230043
  0.1278356592720238  0.2492312384557836  0.4467523164149064
  0.1307291735227778  0.5833409169954367  0.4506847427711309
  0.1278560879175921  0.9174144543117762  0.4467365475719515
  0.7087951072339220  0.0833487208018688  0.3047430412880865
  0.7109959228116925  0.4158343792399454  0.3081759587767527
  0.7110167106269639  0.7508025124197071  0.3081864232126406
  0.2886017800617996  0.2525226696544128  0.6937523090748151
  0.2840844225759986  0.5833814452556279  0.6901670574718280
  0.2886263568893294  0.9141406915191609  0.6937663239448563
  0.7910509858718567  0.2493275905497853  0.8065948277227301
  0.7868383256851604  0.5833589601149967  0.8071600873447400
  0.7910743503143348  0.9173053481158908  0.8065892258222173
  0.2108449928461029  0.0833530209191933  0.1934551327645381
  0.2116629859324383  0.4171805205563018  0.1954127801605223
  0.2116766670698114  0.7494456589279784  0.1953968348487698
  0.4460135799539016  0.2482825619130977  0.3745986215334220
  0.4480288563554694  0.5833526095798868  0.3695767070496793
  0.4460387780801944  0.9183505528723116  0.3745918929875411
  0.5501045710819151  0.0833676220854156  0.6430293360620081
  0.5536508006244129  0.4183424871508384  0.6292631051593671
  0.5536722722469709  0.7482846871803643  0.6292652799296126
  0.0562834479817997  0.0833557528378703  0.8722843216659408
  0.0538834654312217  0.4173467798556354  0.8701776647120225
  0.0539131591175760  0.7492780582413551  0.8701830916409299
  0.9468849796002811  0.2510464298983870  0.1315248754025814
  0.9441023870022734  0.5833513718564526  0.1323023372203965
  0.9469102766151209  0.9156073096624273  0.1315214968882685
  0.4322868595913039  0.5833726382167223  0.8282177374210353

  0.00000000E+00  0.00000000E+00  0.00000000E+00
  0.00000000E+00  0.00000000E+00  0.00000000E+00
  0.00000000E+00  0.00000000E+00  0.00000000E+00
  0.00000000E+00  0.00000000E+00  0.00000000E+00
  0.00000000E+00  0.00000000E+00  0.00000000E+00
  0.00000000E+00  0.00000000E+00  0.00000000E+00
  0.00000000E+00  0.00000000E+00  0.00000000E+00
  0.00000000E+00  0.00000000E+00  0.00000000E+00
  0.00000000E+00  0.00000000E+00  0.00000000E+00
  0.00000000E+00  0.00000000E+00  0.00000000E+00
  0.00000000E+00  0.00000000E+00  0.00000000E+00
  0.00000000E+00  0.00000000E+00  0.00000000E+00
  0.00000000E+00  0.00000000E+00  0.00000000E+00
  0.00000000E+00  0.00000000E+00  0.00000000E+00
  0.00000000E+00  0.00000000E+00  0.00000000E+00
  0.00000000E+00  0.00000000E+00  0.00000000E+00
  0.00000000E+00  0.00000000E+00  0.00000000E+00
  0.00000000E+00  0.00000000E+00  0.00000000E+00
  0.00000000E+00  0.00000000E+00  0.00000000E+00
  0.00000000E+00  0.00000000E+00  0.00000000E+00
  0.00000000E+00  0.00000000E+00  0.00000000E+00
  0.00000000E+00  0.00000000E+00  0.00000000E+00
  0.00000000E+00  0.00000000E+00  0.00000000E+00
  0.00000000E+00  0.00000000E+00  0.00000000E+00
  0.00000000E+00  0.00000000E+00  0.00000000E+00
  0.00000000E+00  0.00000000E+00  0.00000000E+00
  0.00000000E+00  0.00000000E+00  0.00000000E+00
  0.00000000E+00  0.00000000E+00  0.00000000E+00
  0.00000000E+00  0.00000000E+00  0.00000000E+00
  0.00000000E+00  0.00000000E+00  0.00000000E+00
  0.00000000E+00  0.00000000E+00  0.00000000E+00
  0.00000000E+00  0.00000000E+00  0.00000000E+00
  0.00000000E+00  0.00000000E+00  0.00000000E+00
  0.00000000E+00  0.00000000E+00  0.00000000E+00
  0.00000000E+00  0.00000000E+00  0.00000000E+00
  0.00000000E+00  0.00000000E+00  0.00000000E+00
  0.00000000E+00  0.00000000E+00  0.00000000E+00
  0.00000000E+00  0.00000000E+00  0.00000000E+00
  0.00000000E+00  0.00000000E+00  0.00000000E+00
  0.00000000E+00  0.00000000E+00  0.00000000E+00
  0.00000000E+00  0.00000000E+00  0.00000000E+00
  0.00000000E+00  0.00000000E+00  0.00000000E+00
  0.00000000E+00  0.00000000E+00  0.00000000E+00
  0.00000000E+00  0.00000000E+00  0.00000000E+00
  0.00000000E+00  0.00000000E+00  0.00000000E+00
  0.00000000E+00  0.00000000E+00  0.00000000E+00
  0.00000000E+00  0.00000000E+00  0.00000000E+00
  0.00000000E+00  0.00000000E+00  0.00000000E+00
  0.00000000E+00  0.00000000E+00  0.00000000E+00
  0.00000000E+00  0.00000000E+00  0.00000000E+00
  0.00000000E+00  0.00000000E+00  0.00000000E+00
  0.00000000E+00  0.00000000E+00  0.00000000E+00
  0.00000000E+00  0.00000000E+00  0.00000000E+00
  0.00000000E+00  0.00000000E+00  0.00000000E+00
  0.00000000E+00  0.00000000E+00  0.00000000E+00
  0.00000000E+00  0.00000000E+00  0.00000000E+00
  0.00000000E+00  0.00000000E+00  0.00000000E+00
  0.00000000E+00  0.00000000E+00  0.00000000E+00
  0.00000000E+00  0.00000000E+00  0.00000000E+00
  0.00000000E+00  0.00000000E+00  0.00000000E+00
