Sb2 Se3                                 
  0.99882000000000204     
    11.9454718211925162    0.0000000000000000    0.0000000000000000
     0.0000000000000000   11.9285311965989376    0.0000000000000000
     0.0000000000000000    0.0000000000000000   11.5287107052303703
   Sb   Se
    23    37
Direct
  0.5298059296278232  0.0833158542024487  0.1637627379176059
  0.5314232328444524  0.4189407423934214  0.1715254350159152
  0.5314279529092280  0.7477008034568948  0.1714827316702902
  0.4742637296081507  0.2492687637234798  0.8170203419223053
  0.4742838399193816  0.9174469586005853  0.8170045658964702
  0.9708480360272824  0.2499534521343779  0.6723933255853882
  0.9681617472905499  0.5833308264222407  0.6781933645371713
  0.9708515629376445  0.9167139559851132  0.6723721693202670
  0.0303505396329802  0.0833322410963748  0.3276328533450155
  0.0323918435540452  0.4176387205867447  0.3317980141870397
  0.0323947127867072  0.7490383207555746  0.3317755716664984
  0.6498126600159442  0.2528561062581171  0.4602327602690524
  0.6454527858783019  0.5833323143847802  0.4686601880520047
  0.6498358967010174  0.9137980661945013  0.4602130364016089
  0.3529174295959362  0.0833209126277097  0.5420628279285430
  0.3591386307010769  0.4110519970596503  0.5288927366482431
  0.3591733696516519  0.7555851289874406  0.5288652972178679
  0.8550456987579903  0.0833177772850781  0.9629588018741867
  0.8539364483299285  0.4170806432054212  0.9636042112844980
  0.8539597735852650  0.7495823748635936  0.9636179448370843
  0.1453525335471047  0.2495596303017940  0.0378556601622342
  0.1437238172206473  0.5833507363787195  0.0413234521797737
  0.1453837435246690  0.9171615148824684  0.0378284456628486
  0.6269752241016017  0.2516096004388337  0.0524946254896043
  0.6274982206302827  0.5833165376449257  0.0543494224679013
  0.6270201125971846  0.9150401640233236  0.0525011409676610
  0.3788661962108071  0.0833416614013440  0.9409889462025043
  0.3704509905852322  0.4286195740743127  0.9423685186991555
  0.3704845566375944  0.7380761602518803  0.9423775461811900
  0.8743812380481307  0.0833387373606067  0.5537664573316469
  0.8742187675525311  0.4164177293453639  0.5551558335565512
  0.8742303106137020  0.7502387505367832  0.5551387371197120
  0.1291450432189668  0.2491893842214114  0.4460995943972125
  0.1319318981314146  0.5833493050836707  0.4501054401816804
  0.1291628213020831  0.9174712952952033  0.4460818854687335
  0.7086448520630736  0.0833433851154559  0.3059031010348842
  0.7109952925268261  0.4154986899934206  0.3081149496387682
  0.7109972871709178  0.7511303681347830  0.3081134997395455
  0.2887696021846640  0.2527216410248275  0.6929035769668684
  0.2837097295315664  0.5833696661057730  0.6895002620783781
  0.2887999200746995  0.9139315988814033  0.6928937607811292
  0.7900639654170344  0.2491403172675327  0.8073874559811649
  0.7859253998130764  0.5833607762861098  0.8082563942154880
  0.7900807625776667  0.9174885232267285  0.8073769829201307
  0.2117166534367113  0.0833699109442520  0.1919003381813495
  0.2120348633392362  0.4172419707876226  0.1941518178455161
  0.2120470245011531  0.7494158918441801  0.1941336488500115
  0.4475003236006573  0.2481801384599288  0.3757930776954745
  0.4498872166725824  0.5833408669376845  0.3698810916632212
  0.4475203710575459  0.9184419004496609  0.3757902804571555
  0.5499715606260546  0.0833608591909625  0.6417886779039715
  0.5532712883082399  0.4189606203180565  0.6292541117652954
  0.5532937773731056  0.7476352089062764  0.6292524473982567
  0.0545963072485346  0.0833567818855911  0.8727422875663722
  0.0516989382777515  0.4171377971756352  0.8708553254298479
  0.0517278944047992  0.7495082116600305  0.8708689917411850
  0.9480164527555003  0.2510383903562753  0.1308042012735884
  0.9442163248040364  0.5833588520863445  0.1319308887603491
  0.9480562822429988  0.9156319335327736  0.1307965068924358
  0.4321566157142662  0.5833489579644920  0.8271016685741746

  0.00000000E+00  0.00000000E+00  0.00000000E+00
  0.00000000E+00  0.00000000E+00  0.00000000E+00
  0.00000000E+00  0.00000000E+00  0.00000000E+00
  0.00000000E+00  0.00000000E+00  0.00000000E+00
  0.00000000E+00  0.00000000E+00  0.00000000E+00
  0.00000000E+00  0.00000000E+00  0.00000000E+00
  0.00000000E+00  0.00000000E+00  0.00000000E+00
  0.00000000E+00  0.00000000E+00  0.00000000E+00
  0.00000000E+00  0.00000000E+00  0.00000000E+00
  0.00000000E+00  0.00000000E+00  0.00000000E+00
  0.00000000E+00  0.00000000E+00  0.00000000E+00
  0.00000000E+00  0.00000000E+00  0.00000000E+00
  0.00000000E+00  0.00000000E+00  0.00000000E+00
  0.00000000E+00  0.00000000E+00  0.00000000E+00
  0.00000000E+00  0.00000000E+00  0.00000000E+00
  0.00000000E+00  0.00000000E+00  0.00000000E+00
  0.00000000E+00  0.00000000E+00  0.00000000E+00
  0.00000000E+00  0.00000000E+00  0.00000000E+00
  0.00000000E+00  0.00000000E+00  0.00000000E+00
  0.00000000E+00  0.00000000E+00  0.00000000E+00
  0.00000000E+00  0.00000000E+00  0.00000000E+00
  0.00000000E+00  0.00000000E+00  0.00000000E+00
  0.00000000E+00  0.00000000E+00  0.00000000E+00
  0.00000000E+00  0.00000000E+00  0.00000000E+00
  0.00000000E+00  0.00000000E+00  0.00000000E+00
  0.00000000E+00  0.00000000E+00  0.00000000E+00
  0.00000000E+00  0.00000000E+00  0.00000000E+00
  0.00000000E+00  0.00000000E+00  0.00000000E+00
  0.00000000E+00  0.00000000E+00  0.00000000E+00
  0.00000000E+00  0.00000000E+00  0.00000000E+00
  0.00000000E+00  0.00000000E+00  0.00000000E+00
  0.00000000E+00  0.00000000E+00  0.00000000E+00
  0.00000000E+00  0.00000000E+00  0.00000000E+00
  0.00000000E+00  0.00000000E+00  0.00000000E+00
  0.00000000E+00  0.00000000E+00  0.00000000E+00
  0.00000000E+00  0.00000000E+00  0.00000000E+00
  0.00000000E+00  0.00000000E+00  0.00000000E+00
  0.00000000E+00  0.00000000E+00  0.00000000E+00
  0.00000000E+00  0.00000000E+00  0.00000000E+00
  0.00000000E+00  0.00000000E+00  0.00000000E+00
  0.00000000E+00  0.00000000E+00  0.00000000E+00
  0.00000000E+00  0.00000000E+00  0.00000000E+00
  0.00000000E+00  0.00000000E+00  0.00000000E+00
  0.00000000E+00  0.00000000E+00  0.00000000E+00
  0.00000000E+00  0.00000000E+00  0.00000000E+00
  0.00000000E+00  0.00000000E+00  0.00000000E+00
  0.00000000E+00  0.00000000E+00  0.00000000E+00
  0.00000000E+00  0.00000000E+00  0.00000000E+00
  0.00000000E+00  0.00000000E+00  0.00000000E+00
  0.00000000E+00  0.00000000E+00  0.00000000E+00
  0.00000000E+00  0.00000000E+00  0.00000000E+00
  0.00000000E+00  0.00000000E+00  0.00000000E+00
  0.00000000E+00  0.00000000E+00  0.00000000E+00
  0.00000000E+00  0.00000000E+00  0.00000000E+00
  0.00000000E+00  0.00000000E+00  0.00000000E+00
  0.00000000E+00  0.00000000E+00  0.00000000E+00
  0.00000000E+00  0.00000000E+00  0.00000000E+00
  0.00000000E+00  0.00000000E+00  0.00000000E+00
  0.00000000E+00  0.00000000E+00  0.00000000E+00
  0.00000000E+00  0.00000000E+00  0.00000000E+00
