Sb2 Se3                                 
  0.998820000000002     
    11.9454718211925162    0.0000000000000000    0.0000000000000000
     0.0000000000000000   11.9285311965989376    0.0000000000000000
     0.0000000000000000    0.0000000000000000   11.5287107052303703
   Sb   Se
    23    37
Direct
  0.5355838081598737  0.0834142894249821  0.1690317930159461
  0.5323662578266690  0.4178719258966746  0.1691989392746212
  0.5320923952199883  0.7489309916398149  0.1688953738485008
  0.4794759681056788  0.2462336729953940  0.8259781982279152
  0.4792957628233678  0.9204001450365062  0.8264476438976345
  0.9716463805169678  0.2490804676708508  0.6732040603913672
  0.9696868262771856  0.5832955676135403  0.6752509532068763
  0.9716244771783245  0.9175980873350341  0.6731928979596858
  0.0327197342249568  0.0833178115518873  0.3247824770227692
  0.0306233419096837  0.4164021171456716  0.3299536656813604
  0.0305283395245019  0.7502511433172616  0.3299559076401083
  0.6478565853431633  0.2543745429467822  0.4648414605296405
  0.6489118159761658  0.5834069153030091  0.4599244836329472
  0.6479819867582806  0.9122646660825015  0.4645899125869238
  0.3572313234522787  0.0832836960605836  0.5299956074492216
  0.3612188074210556  0.4146944298244526  0.5362654849382689
  0.3613381609801240  0.7520744330338041  0.5363172553200078
  0.8567880259676348  0.0833022188889572  0.9652848714587157
  0.8527008945701461  0.4161788489625575  0.9641107239835484
  0.8528227519233729  0.7504965367623769  0.9641707291955702
  0.1470620628189526  0.2518810611982046  0.0375328512795591
  0.1400533948847079  0.5833369570420001  0.0381043871005177
  0.1473135680071173  0.9146753413485068  0.0375903626496228
  0.6322343963935868  0.2485790307668543  0.0520846468703964
  0.6142680375071354  0.5833441503149509  0.0423115600270481
  0.6322421014102791  0.9181991686654902  0.0521623849155966
  0.3792056194921077  0.0835480055561621  0.9383189914886987
  0.3674181316763019  0.3824402607503579  0.9527730395528744
  0.3674193691392694  0.7846644945068012  0.9533736006990506
  0.8742707040202891  0.0833450623806506  0.5545440616709654
  0.8745811241872546  0.4166495570640744  0.5550092467554111
  0.8746143859274494  0.7499916678478453  0.5550472224743851
  0.1290587850366448  0.2496364424315905  0.4450749534135667
  0.1304815824047672  0.5833398872372622  0.4447261870638360
  0.1290383994441750  0.9170125928290069  0.4450439470730603
  0.7104151926669354  0.0833914447715975  0.3083109573422095
  0.7134448823872123  0.4168781324834430  0.3028024642141927
  0.7133784985358850  0.7497287684581474  0.3027312804669275
  0.2978836622713253  0.2479216915533361  0.6879611818501662
  0.2759105800386565  0.5832665059873682  0.6960080765336906
  0.2978894704530891  0.9186678251948610  0.6880281085867511
  0.7911051492227192  0.2500947595119646  0.8069824967163016
  0.7887010837369779  0.5833483731612712  0.8083859731550190
  0.7911230900649012  0.9165431705435124  0.8070155967404539
  0.2144218770467861  0.0833529958615399  0.1925631694639059
  0.2102628683224183  0.4165521377422052  0.1928752721969145
  0.2102251914184914  0.7500898400489089  0.1929036191098333
  0.4488190891896819  0.2539216765087561  0.3710874294819173
  0.4518441841605111  0.5833401525342907  0.3647903930430927
  0.4488410184813874  0.9127249111504320  0.3710170907718329
  0.5570649197923551  0.0832938912987322  0.6184747567084743
  0.5573476602375594  0.4214795601910547  0.6266625276164635
  0.5574579107439662  0.7451579534120153  0.6266230748875901
  0.0530945056994610  0.0833686567096730  0.8685780253637269
  0.0518105172864684  0.4166204684370165  0.8723104126379658
  0.0518938883182046  0.7500187507398977  0.8723083531495577
  0.9464282481355929  0.2495845491015170  0.1307250172027086
  0.9422999385443943  0.5833288779680433  0.1321469417206906
  0.9464591184473491  0.9170599930281647  0.1307433046350473
  0.3801221482881919  0.5827487261698414  0.8728745611083836
 
  0.00000000E+00  0.00000000E+00  0.00000000E+00
  0.00000000E+00  0.00000000E+00  0.00000000E+00
  0.00000000E+00  0.00000000E+00  0.00000000E+00
  0.00000000E+00  0.00000000E+00  0.00000000E+00
  0.00000000E+00  0.00000000E+00  0.00000000E+00
  0.00000000E+00  0.00000000E+00  0.00000000E+00
  0.00000000E+00  0.00000000E+00  0.00000000E+00
  0.00000000E+00  0.00000000E+00  0.00000000E+00
  0.00000000E+00  0.00000000E+00  0.00000000E+00
  0.00000000E+00  0.00000000E+00  0.00000000E+00
  0.00000000E+00  0.00000000E+00  0.00000000E+00
  0.00000000E+00  0.00000000E+00  0.00000000E+00
  0.00000000E+00  0.00000000E+00  0.00000000E+00
  0.00000000E+00  0.00000000E+00  0.00000000E+00
  0.00000000E+00  0.00000000E+00  0.00000000E+00
  0.00000000E+00  0.00000000E+00  0.00000000E+00
  0.00000000E+00  0.00000000E+00  0.00000000E+00
  0.00000000E+00  0.00000000E+00  0.00000000E+00
  0.00000000E+00  0.00000000E+00  0.00000000E+00
  0.00000000E+00  0.00000000E+00  0.00000000E+00
  0.00000000E+00  0.00000000E+00  0.00000000E+00
  0.00000000E+00  0.00000000E+00  0.00000000E+00
  0.00000000E+00  0.00000000E+00  0.00000000E+00
  0.00000000E+00  0.00000000E+00  0.00000000E+00
  0.00000000E+00  0.00000000E+00  0.00000000E+00
  0.00000000E+00  0.00000000E+00  0.00000000E+00
  0.00000000E+00  0.00000000E+00  0.00000000E+00
  0.00000000E+00  0.00000000E+00  0.00000000E+00
  0.00000000E+00  0.00000000E+00  0.00000000E+00
  0.00000000E+00  0.00000000E+00  0.00000000E+00
  0.00000000E+00  0.00000000E+00  0.00000000E+00
  0.00000000E+00  0.00000000E+00  0.00000000E+00
  0.00000000E+00  0.00000000E+00  0.00000000E+00
  0.00000000E+00  0.00000000E+00  0.00000000E+00
  0.00000000E+00  0.00000000E+00  0.00000000E+00
  0.00000000E+00  0.00000000E+00  0.00000000E+00
  0.00000000E+00  0.00000000E+00  0.00000000E+00
  0.00000000E+00  0.00000000E+00  0.00000000E+00
  0.00000000E+00  0.00000000E+00  0.00000000E+00
  0.00000000E+00  0.00000000E+00  0.00000000E+00
  0.00000000E+00  0.00000000E+00  0.00000000E+00
  0.00000000E+00  0.00000000E+00  0.00000000E+00
  0.00000000E+00  0.00000000E+00  0.00000000E+00
  0.00000000E+00  0.00000000E+00  0.00000000E+00
  0.00000000E+00  0.00000000E+00  0.00000000E+00
  0.00000000E+00  0.00000000E+00  0.00000000E+00
  0.00000000E+00  0.00000000E+00  0.00000000E+00
  0.00000000E+00  0.00000000E+00  0.00000000E+00
  0.00000000E+00  0.00000000E+00  0.00000000E+00
  0.00000000E+00  0.00000000E+00  0.00000000E+00
  0.00000000E+00  0.00000000E+00  0.00000000E+00
  0.00000000E+00  0.00000000E+00  0.00000000E+00
  0.00000000E+00  0.00000000E+00  0.00000000E+00
  0.00000000E+00  0.00000000E+00  0.00000000E+00
  0.00000000E+00  0.00000000E+00  0.00000000E+00
  0.00000000E+00  0.00000000E+00  0.00000000E+00
  0.00000000E+00  0.00000000E+00  0.00000000E+00
  0.00000000E+00  0.00000000E+00  0.00000000E+00
  0.00000000E+00  0.00000000E+00  0.00000000E+00
  0.00000000E+00  0.00000000E+00  0.00000000E+00
