Sb2 Se3                                 
  0.99882000000000204     
    11.9454718211925162    0.0000000000000000    0.0000000000000000
     0.0000000000000000   11.9285311965989376    0.0000000000000000
     0.0000000000000000    0.0000000000000000   11.5287107052303703
   Sb   Se
    24    37
Direct
  0.5292552858295135  0.0865439863675406  0.1729920446137776
  0.5272734209626831  0.4169782727462664  0.1669187284801540
  0.5266846644768914  0.7505367445840823  0.1693717370963368
  0.4820057607149761  0.2502910949890110  0.8274409959599272
  0.4842243255601501  0.5857750764416796  0.8297966840949028
  0.4787086743134581  0.9197213196948388  0.8228947612720784
  0.9823818358847914  0.2402340054484811  0.6685254527943884
  0.9744696135863748  0.5756598762141402  0.6941712745535303
  0.9777043046162132  0.9127281711811462  0.6625669050977278
  0.0319521753743128  0.0808170298790867  0.3528533136470771
 -0.0041007010836353  0.4640323223527361  0.3636587168801494
 -0.0163483406456998  0.7104278890301461  0.3617667087132855
  0.6556967614416790  0.2486900219713387  0.4698181177859187
  0.6568766780907467  0.5842464172125600  0.4602643719233470
  0.6447453389757727  0.9210589234500078  0.4652538247604139
  0.3440503716098827  0.0880015514159570  0.5370575816883896
  0.3620328379348843  0.4184850101934215  0.5394427747474281
  0.3593682942595902  0.7517739180573095  0.5391169145894387
  0.8503149152845324  0.0728063195994876  0.9475431713972244
  0.8596285729452041  0.4012439945659170  0.9587108781000837
  0.8504439210548849  0.7419541687081719  0.9587185740645603
  0.1493884462663878  0.2214680255541377  0.0294279964649929
  0.1579455815690268  0.5904901644982267  0.0320003499901685
  0.1407583073111371  0.9022087824140712  0.0373412638751609
  0.6322359135443525  0.2515589574736640  0.0568639957574123
  0.6330639699452557  0.5860110016235949  0.0574723516003239
  0.6285837529367739  0.9191273228615894  0.0587505464775938
  0.3812781273715116  0.0858521913857904  0.9445047165155384
  0.3856831663159708  0.4198188526119340  0.9453992508792926
  0.3823953395285508  0.7513750686308650  0.9446550497601288
  0.8743004518640511  0.0769434413117834  0.5473185351757390
  0.8770931249017762  0.4147986498471947  0.5539194895394149
  0.8660072976213605  0.7425839037403966  0.5570134455242589
  0.1357612056947292  0.2378520724040860  0.4598798170186462
  0.1364681306901639  0.5968742180987399  0.4740239179461602
  0.1322272522261809  0.9170646186809825  0.4522767439635938
  0.7108999203321800  0.0856355755802237  0.3078108359666019
  0.7128809656283955  0.4160023325207012  0.3079597163974478
  0.7100544637147960  0.7520045092172982  0.3063119545766177
  0.2970357732324594  0.2529707790259217  0.6976753295158975
  0.3009508481699568  0.5849785330215352  0.6983891460052980
  0.2936978967832818  0.9173132917205299  0.6963405187719216
  0.7903260595225332  0.2450358343112555  0.7920857429079394
  0.7834654193756276  0.5740101817667648  0.8017356007299103
  0.7877965207141588  0.9098142818243927  0.7941157135823244
  0.2066151188009139  0.0605969484767809  0.1841542268083236
  0.2370797838868026  0.4931460590845600  0.2215608962019537
  0.1986678859527033  0.7485475089753448  0.1882586992173441
  0.4574267927140140  0.2514836314356003  0.3806309627433422
  0.4558431257903207  0.5848663647112998  0.3757497205418086
  0.4472171515372135  0.9183695850076364  0.3700327463781382
  0.5521581276975193  0.0834382369884661  0.6293567861458091
  0.5598345995052603  0.4182351694344315  0.6313723735558378
  0.5579711164946921  0.7537183702977875  0.6300967179305661
  0.0470366550105606  0.0726728119513895  0.8508912627434996
  0.0528338808824099  0.4083106853424752  0.8532983589203298
  0.0458606186350927  0.7452444663922928  0.8558906850416064
  0.9515444894413018  0.2461823379530643  0.1166777842742027
  0.9499127771055119  0.5764916389106925  0.1024878552747909
  0.9371907123259218  0.9114269375947633  0.1120168943027376
  0.2758325177719120  0.3034705432143975  0.1967264357172793

  0.00000000E+00  0.00000000E+00  0.00000000E+00
  0.00000000E+00  0.00000000E+00  0.00000000E+00
  0.00000000E+00  0.00000000E+00  0.00000000E+00
  0.00000000E+00  0.00000000E+00  0.00000000E+00
  0.00000000E+00  0.00000000E+00  0.00000000E+00
  0.00000000E+00  0.00000000E+00  0.00000000E+00
  0.00000000E+00  0.00000000E+00  0.00000000E+00
  0.00000000E+00  0.00000000E+00  0.00000000E+00
  0.00000000E+00  0.00000000E+00  0.00000000E+00
  0.00000000E+00  0.00000000E+00  0.00000000E+00
  0.00000000E+00  0.00000000E+00  0.00000000E+00
  0.00000000E+00  0.00000000E+00  0.00000000E+00
  0.00000000E+00  0.00000000E+00  0.00000000E+00
  0.00000000E+00  0.00000000E+00  0.00000000E+00
  0.00000000E+00  0.00000000E+00  0.00000000E+00
  0.00000000E+00  0.00000000E+00  0.00000000E+00
  0.00000000E+00  0.00000000E+00  0.00000000E+00
  0.00000000E+00  0.00000000E+00  0.00000000E+00
  0.00000000E+00  0.00000000E+00  0.00000000E+00
  0.00000000E+00  0.00000000E+00  0.00000000E+00
  0.00000000E+00  0.00000000E+00  0.00000000E+00
  0.00000000E+00  0.00000000E+00  0.00000000E+00
  0.00000000E+00  0.00000000E+00  0.00000000E+00
  0.00000000E+00  0.00000000E+00  0.00000000E+00
  0.00000000E+00  0.00000000E+00  0.00000000E+00
  0.00000000E+00  0.00000000E+00  0.00000000E+00
  0.00000000E+00  0.00000000E+00  0.00000000E+00
  0.00000000E+00  0.00000000E+00  0.00000000E+00
  0.00000000E+00  0.00000000E+00  0.00000000E+00
  0.00000000E+00  0.00000000E+00  0.00000000E+00
  0.00000000E+00  0.00000000E+00  0.00000000E+00
  0.00000000E+00  0.00000000E+00  0.00000000E+00
  0.00000000E+00  0.00000000E+00  0.00000000E+00
  0.00000000E+00  0.00000000E+00  0.00000000E+00
  0.00000000E+00  0.00000000E+00  0.00000000E+00
  0.00000000E+00  0.00000000E+00  0.00000000E+00
  0.00000000E+00  0.00000000E+00  0.00000000E+00
  0.00000000E+00  0.00000000E+00  0.00000000E+00
  0.00000000E+00  0.00000000E+00  0.00000000E+00
  0.00000000E+00  0.00000000E+00  0.00000000E+00
  0.00000000E+00  0.00000000E+00  0.00000000E+00
  0.00000000E+00  0.00000000E+00  0.00000000E+00
  0.00000000E+00  0.00000000E+00  0.00000000E+00
  0.00000000E+00  0.00000000E+00  0.00000000E+00
  0.00000000E+00  0.00000000E+00  0.00000000E+00
  0.00000000E+00  0.00000000E+00  0.00000000E+00
  0.00000000E+00  0.00000000E+00  0.00000000E+00
  0.00000000E+00  0.00000000E+00  0.00000000E+00
  0.00000000E+00  0.00000000E+00  0.00000000E+00
  0.00000000E+00  0.00000000E+00  0.00000000E+00
  0.00000000E+00  0.00000000E+00  0.00000000E+00
  0.00000000E+00  0.00000000E+00  0.00000000E+00
  0.00000000E+00  0.00000000E+00  0.00000000E+00
  0.00000000E+00  0.00000000E+00  0.00000000E+00
  0.00000000E+00  0.00000000E+00  0.00000000E+00
  0.00000000E+00  0.00000000E+00  0.00000000E+00
  0.00000000E+00  0.00000000E+00  0.00000000E+00
  0.00000000E+00  0.00000000E+00  0.00000000E+00
  0.00000000E+00  0.00000000E+00  0.00000000E+00
  0.00000000E+00  0.00000000E+00  0.00000000E+00
  0.00000000E+00  0.00000000E+00  0.00000000E+00
