Sb2 Se3                                 
  0.99882000000000204     
    11.9454718211925162    0.0000000000000000    0.0000000000000000
     0.0000000000000000   11.9285311965989376    0.0000000000000000
     0.0000000000000000    0.0000000000000000   11.5287107052303703
   Sb   Se
    24    37
Direct
  0.5310755135508437  0.0874742453837654  0.1735290054142350
  0.5340372522415000  0.4187222627893953  0.1712204923459705
  0.5286994803654165  0.7514214662152670  0.1729360728297865
  0.4755976965068305  0.2536994526524657  0.8315224495690909
  0.4778622644651328  0.5870565376998027  0.8307024236647905
  0.4712886248128464  0.9179758060201756  0.8287732203291849
  0.9756477764942324  0.2425958292108419  0.6743326986520380
  0.9692594881734148  0.5797823494796648  0.6775259131030567
  0.9672838454557623  0.9115786622938351  0.6685757432234126
  0.0263622061608685  0.0824289418833072  0.3267670292095773
  0.0301811812557868  0.4228283734568162  0.3491034019313447
  0.0217559507289681  0.7504846367538722  0.3362113555412737
  0.6600941623038561  0.2519186176290943  0.4680845527111875
  0.6532029506600469  0.5870295040213167  0.4647683190763505
  0.6477144339825760  0.9190350276258741  0.4641926417747164
  0.3597662459809274  0.0876229536425725  0.5387132257200646
  0.3622688535799870  0.4187360704807198  0.5398350869143499
  0.3577257411821314  0.7511881381420210  0.5382848165167141
  0.8484897181998248  0.0728805189938039  0.9561556727918096
  0.8579828046343432  0.4065731075889125  0.9615439247969358
  0.8482224983279055  0.7377350955704113  0.9653354508313595
  0.1495227040339994  0.2215581590201256  0.0255288169936964
  0.1441662089900777  0.5833936973855454  0.0299835271167022
  0.1387714699251946  0.9011687601815017  0.0303744469067773
  0.6306786742664005  0.2522694681320828  0.0548367549188689
  0.6317242533861321  0.5881676734796886  0.0561770802408228
  0.6267109276537012  0.9199378651051509  0.0572951728644744
  0.3758674263994659  0.0857181261919347  0.9455235817018205
  0.3804218670901378  0.4240191743870586  0.9464787298406842
  0.3737684484238425  0.7512349791133069  0.9474841895850226
  0.8749815439275528  0.0783285298523108  0.5505620332926404
  0.8800307173956502  0.4119110616242191  0.5525746489062866
  0.8676353258211728  0.7446479249527819  0.5534006352642150
  0.1293538370937575  0.2459353677230720  0.4424007723338369
  0.1245927414026620  0.5950793735500975  0.4606650653353443
  0.1267406987179384  0.9152585649022125  0.4427954255175385
  0.7129946944384349  0.0866120613290647  0.3075691318027060
  0.7161236817874846  0.4177040330079889  0.3092805280149528
  0.7109354536614886  0.7526063902078177  0.3069788832522843
  0.2944452786589103  0.2533066566002944  0.6950152210857654
  0.2964110956835543  0.5860048882950187  0.6949258375087403
  0.2913598466354006  0.9181432495188551  0.6927598855814792
  0.7906306635625965  0.2449702713675882  0.8011286791078216
  0.7852326046682389  0.5728981577347415  0.8065047174518588
  0.7855157454953210  0.9097406588748319  0.8042815358421048
  0.2049056117262061  0.0581655651059831  0.1833394596985496
  0.2277856186842992  0.4769620632896623  0.2283398374500239
  0.2019354198381243  0.7467278603272379  0.1889129646500442
  0.4610435442958518  0.2525883179307349  0.3808666954350582
  0.4549471870641832  0.5849336716053414  0.3737440762821176
  0.4493585433015975  0.9204230468728372  0.3704168344247919
  0.5569118658420592  0.0839922114037310  0.6332785293262521
  0.5594568729177879  0.4198801752824834  0.6334533549259332
  0.5570430923760754  0.7541163899558495  0.6280888571810733
  0.0443728259835667  0.0697035668387014  0.8577737144444953
  0.0530853980511805  0.4096991663211134  0.8623327124599612
  0.0457841538525740  0.7402894905244229  0.8658685380802204
  0.9586133284996676  0.2497590055099284  0.1296142865556305
  0.9452066063458594  0.5777842126032706  0.1220861807561854
  0.9398879181220254  0.9098699009726321  0.1216596734613478
  0.2872194149166268  0.2957226653848524  0.1889434544547030

  0.00000000E+00  0.00000000E+00  0.00000000E+00
  0.00000000E+00  0.00000000E+00  0.00000000E+00
  0.00000000E+00  0.00000000E+00  0.00000000E+00
  0.00000000E+00  0.00000000E+00  0.00000000E+00
  0.00000000E+00  0.00000000E+00  0.00000000E+00
  0.00000000E+00  0.00000000E+00  0.00000000E+00
  0.00000000E+00  0.00000000E+00  0.00000000E+00
  0.00000000E+00  0.00000000E+00  0.00000000E+00
  0.00000000E+00  0.00000000E+00  0.00000000E+00
  0.00000000E+00  0.00000000E+00  0.00000000E+00
  0.00000000E+00  0.00000000E+00  0.00000000E+00
  0.00000000E+00  0.00000000E+00  0.00000000E+00
  0.00000000E+00  0.00000000E+00  0.00000000E+00
  0.00000000E+00  0.00000000E+00  0.00000000E+00
  0.00000000E+00  0.00000000E+00  0.00000000E+00
  0.00000000E+00  0.00000000E+00  0.00000000E+00
  0.00000000E+00  0.00000000E+00  0.00000000E+00
  0.00000000E+00  0.00000000E+00  0.00000000E+00
  0.00000000E+00  0.00000000E+00  0.00000000E+00
  0.00000000E+00  0.00000000E+00  0.00000000E+00
  0.00000000E+00  0.00000000E+00  0.00000000E+00
  0.00000000E+00  0.00000000E+00  0.00000000E+00
  0.00000000E+00  0.00000000E+00  0.00000000E+00
  0.00000000E+00  0.00000000E+00  0.00000000E+00
  0.00000000E+00  0.00000000E+00  0.00000000E+00
  0.00000000E+00  0.00000000E+00  0.00000000E+00
  0.00000000E+00  0.00000000E+00  0.00000000E+00
  0.00000000E+00  0.00000000E+00  0.00000000E+00
  0.00000000E+00  0.00000000E+00  0.00000000E+00
  0.00000000E+00  0.00000000E+00  0.00000000E+00
  0.00000000E+00  0.00000000E+00  0.00000000E+00
  0.00000000E+00  0.00000000E+00  0.00000000E+00
  0.00000000E+00  0.00000000E+00  0.00000000E+00
  0.00000000E+00  0.00000000E+00  0.00000000E+00
  0.00000000E+00  0.00000000E+00  0.00000000E+00
  0.00000000E+00  0.00000000E+00  0.00000000E+00
  0.00000000E+00  0.00000000E+00  0.00000000E+00
  0.00000000E+00  0.00000000E+00  0.00000000E+00
  0.00000000E+00  0.00000000E+00  0.00000000E+00
  0.00000000E+00  0.00000000E+00  0.00000000E+00
  0.00000000E+00  0.00000000E+00  0.00000000E+00
  0.00000000E+00  0.00000000E+00  0.00000000E+00
  0.00000000E+00  0.00000000E+00  0.00000000E+00
  0.00000000E+00  0.00000000E+00  0.00000000E+00
  0.00000000E+00  0.00000000E+00  0.00000000E+00
  0.00000000E+00  0.00000000E+00  0.00000000E+00
  0.00000000E+00  0.00000000E+00  0.00000000E+00
  0.00000000E+00  0.00000000E+00  0.00000000E+00
  0.00000000E+00  0.00000000E+00  0.00000000E+00
  0.00000000E+00  0.00000000E+00  0.00000000E+00
  0.00000000E+00  0.00000000E+00  0.00000000E+00
  0.00000000E+00  0.00000000E+00  0.00000000E+00
  0.00000000E+00  0.00000000E+00  0.00000000E+00
  0.00000000E+00  0.00000000E+00  0.00000000E+00
  0.00000000E+00  0.00000000E+00  0.00000000E+00
  0.00000000E+00  0.00000000E+00  0.00000000E+00
  0.00000000E+00  0.00000000E+00  0.00000000E+00
  0.00000000E+00  0.00000000E+00  0.00000000E+00
  0.00000000E+00  0.00000000E+00  0.00000000E+00
  0.00000000E+00  0.00000000E+00  0.00000000E+00
  0.00000000E+00  0.00000000E+00  0.00000000E+00
