Sb2 Se3                                 
  0.99882000000000204     
    11.9454718211925162    0.0000000000000000    0.0000000000000000
     0.0000000000000000   11.9285311965989376    0.0000000000000000
     0.0000000000000000    0.0000000000000000   11.5287107052303703
   Sb   Se
    24    37
Direct
  0.5328502021520507  0.0870927798701382  0.1752942297215048
  0.5353152240621998  0.4178600086935211  0.1720908959980195
  0.5299975280775351  0.7514163494762086  0.1740408615942243
  0.4743706616087267  0.2534713406593829  0.8302007954131633
  0.4758944199122504  0.5867338346389331  0.8292029449047787
  0.4706070062233019  0.9172238188913040  0.8277471900976090
  0.9734891257002259  0.2436737868110616  0.6744779503222956
  0.9684533525566695  0.5799711142385729  0.6756093641833736
  0.9678529999454385  0.9122735763339284  0.6686882130774798
  0.0277283568812153  0.0833874899870466  0.3221007682481836
  0.0281521072227238  0.4203740952671636  0.3412132399269859
  0.0236677907512683  0.7519928636156689  0.3329113850394174
  0.6605633432250039  0.2514345025003367  0.4683343494077993
  0.6520479281529623  0.5864145155763426  0.4649502633243698
  0.6476824393273438  0.9177916321221414  0.4649537501228119
  0.3600846312482570  0.0865886072058734  0.5383463450929867
  0.3613580228129740  0.4178099809827402  0.5392407006123722
  0.3563548652699467  0.7505012732683520  0.5374700685429582
  0.8499367791807465  0.0741650239732921  0.9564984714202196
  0.8577527984320532  0.4094058742127202  0.9615730664622824
  0.8481357761394525  0.7401102880352947  0.9656415429679878
  0.1522145826660353  0.2216539597074511  0.0257102282558611
  0.1426811057451020  0.5834970005221242  0.0287747838799025
  0.1401658131317615  0.9008386947716834  0.0298989410840060
  0.6312493437420936  0.2518544767517948  0.0548110888668913
  0.6313809169492346  0.5882083330131042  0.0558725643174743
  0.6272917228952132  0.9193299003270368  0.0573984409989375
  0.3762516891487941  0.0853079749998531  0.9458119376350269
  0.3797089146716077  0.4231265085221392  0.9463795830316037
  0.3730542262702493  0.7511871228845808  0.9473723139054679
  0.8746050940480588  0.0788179139648320  0.5522304082780903
  0.8779245141589216  0.4124126383744834  0.5534781602103022
  0.8662243265193662  0.7453644773982645  0.5551657068144518
  0.1278813532389602  0.2473206132195940  0.4417086742488467
  0.1208534648625508  0.5931938541502090  0.4588243096642883
  0.1264406195655936  0.9157682982267291  0.4435834138413311
  0.7144704372839086  0.0860597351909257  0.3085048509134427
  0.7168435968673859  0.4173799918386496  0.3097085280880618
  0.7116007195682820  0.7519487281887641  0.3076456255132879
  0.2934899674751160  0.2525584520146896  0.6944240907237657
  0.2946834554759363  0.5855865432810580  0.6937906123499477
  0.2909500676793421  0.9176810189214406  0.6922740903113873
  0.7902359613045090  0.2461564610263251  0.8028912118736419
  0.7854115876703845  0.5741035396444498  0.8079639689499922
  0.7863484538453938  0.9107478671772755  0.8056492506285415
  0.2071507501477156  0.0577396180882339  0.1837511537643841
  0.2255403063596836  0.4745464731265552  0.2292621894629128
  0.2033441951325910  0.7467795224859970  0.1891748524655482
  0.4619075527219672  0.2520862041906650  0.3808653706136671
  0.4540607620778320  0.5842997424393527  0.3732444094838625
  0.4499772435929301  0.9201757445539103  0.3706124526499494
  0.5567237580993497  0.0836008304992873  0.6329132852841090
  0.5582400156266716  0.4195671040958819  0.6329316186069146
  0.5556616419784518  0.7532818881621044  0.6273387774446521
  0.0454142394378228  0.0704629543103943  0.8586665307737863
  0.0537930339768915  0.4107507703539342  0.8652433537227314
  0.0462573767866963  0.7405138749754120  0.8677937540951897
  0.9621708481936569  0.2510332270456868  0.1323511524373445
  0.9456018996962591  0.5792462103844960  0.1242972482381739
  0.9418011393669526  0.9111186261463590  0.1223098308006583
  0.2887899431383766  0.2950003486642285  0.1901428062908246

  0.00000000E+00  0.00000000E+00  0.00000000E+00
  0.00000000E+00  0.00000000E+00  0.00000000E+00
  0.00000000E+00  0.00000000E+00  0.00000000E+00
  0.00000000E+00  0.00000000E+00  0.00000000E+00
  0.00000000E+00  0.00000000E+00  0.00000000E+00
  0.00000000E+00  0.00000000E+00  0.00000000E+00
  0.00000000E+00  0.00000000E+00  0.00000000E+00
  0.00000000E+00  0.00000000E+00  0.00000000E+00
  0.00000000E+00  0.00000000E+00  0.00000000E+00
  0.00000000E+00  0.00000000E+00  0.00000000E+00
  0.00000000E+00  0.00000000E+00  0.00000000E+00
  0.00000000E+00  0.00000000E+00  0.00000000E+00
  0.00000000E+00  0.00000000E+00  0.00000000E+00
  0.00000000E+00  0.00000000E+00  0.00000000E+00
  0.00000000E+00  0.00000000E+00  0.00000000E+00
  0.00000000E+00  0.00000000E+00  0.00000000E+00
  0.00000000E+00  0.00000000E+00  0.00000000E+00
  0.00000000E+00  0.00000000E+00  0.00000000E+00
  0.00000000E+00  0.00000000E+00  0.00000000E+00
  0.00000000E+00  0.00000000E+00  0.00000000E+00
  0.00000000E+00  0.00000000E+00  0.00000000E+00
  0.00000000E+00  0.00000000E+00  0.00000000E+00
  0.00000000E+00  0.00000000E+00  0.00000000E+00
  0.00000000E+00  0.00000000E+00  0.00000000E+00
  0.00000000E+00  0.00000000E+00  0.00000000E+00
  0.00000000E+00  0.00000000E+00  0.00000000E+00
  0.00000000E+00  0.00000000E+00  0.00000000E+00
  0.00000000E+00  0.00000000E+00  0.00000000E+00
  0.00000000E+00  0.00000000E+00  0.00000000E+00
  0.00000000E+00  0.00000000E+00  0.00000000E+00
  0.00000000E+00  0.00000000E+00  0.00000000E+00
  0.00000000E+00  0.00000000E+00  0.00000000E+00
  0.00000000E+00  0.00000000E+00  0.00000000E+00
  0.00000000E+00  0.00000000E+00  0.00000000E+00
  0.00000000E+00  0.00000000E+00  0.00000000E+00
  0.00000000E+00  0.00000000E+00  0.00000000E+00
  0.00000000E+00  0.00000000E+00  0.00000000E+00
  0.00000000E+00  0.00000000E+00  0.00000000E+00
  0.00000000E+00  0.00000000E+00  0.00000000E+00
  0.00000000E+00  0.00000000E+00  0.00000000E+00
  0.00000000E+00  0.00000000E+00  0.00000000E+00
  0.00000000E+00  0.00000000E+00  0.00000000E+00
  0.00000000E+00  0.00000000E+00  0.00000000E+00
  0.00000000E+00  0.00000000E+00  0.00000000E+00
  0.00000000E+00  0.00000000E+00  0.00000000E+00
  0.00000000E+00  0.00000000E+00  0.00000000E+00
  0.00000000E+00  0.00000000E+00  0.00000000E+00
  0.00000000E+00  0.00000000E+00  0.00000000E+00
  0.00000000E+00  0.00000000E+00  0.00000000E+00
  0.00000000E+00  0.00000000E+00  0.00000000E+00
  0.00000000E+00  0.00000000E+00  0.00000000E+00
  0.00000000E+00  0.00000000E+00  0.00000000E+00
  0.00000000E+00  0.00000000E+00  0.00000000E+00
  0.00000000E+00  0.00000000E+00  0.00000000E+00
  0.00000000E+00  0.00000000E+00  0.00000000E+00
  0.00000000E+00  0.00000000E+00  0.00000000E+00
  0.00000000E+00  0.00000000E+00  0.00000000E+00
  0.00000000E+00  0.00000000E+00  0.00000000E+00
  0.00000000E+00  0.00000000E+00  0.00000000E+00
  0.00000000E+00  0.00000000E+00  0.00000000E+00
  0.00000000E+00  0.00000000E+00  0.00000000E+00
