Sb2 Se3                                 
  0.99882000000000204     
    11.9454718211925162    0.0000000000000000    0.0000000000000000
     0.0000000000000000   11.9285311965989376    0.0000000000000000
     0.0000000000000000    0.0000000000000000   11.5287107052303703
   Sb   Se
    24    37
Direct
  0.5284801922557254  0.0859057543988255  0.1704149992326672
  0.5545723435632482  0.4194044519872585  0.1980793985622257
  0.5286842938248830  0.7498255627031448  0.1709001122619009
  0.4703621879560224  0.2451529757021199  0.8187367586726665
  0.4780673684855725  0.6013412825617289  0.8141135907456459
  0.4740667336280984  0.9217004521144001  0.8336157065372296
  0.9728799207243467  0.2413354627058031  0.6791779448495239
  0.9748400171929469  0.5788467873714953  0.6854303102748418
  0.9721370045110058  0.9100522739976901  0.6625005350793387
  0.0261200136784811  0.0775598680802079  0.3291005271718848
  0.0194273235724479  0.4071773269645866  0.3518921161124001
  0.0236431120626292  0.7448580217055927  0.3296446397480851
  0.6505683714508013  0.2480236647319542  0.4765587238618799
  0.6547360593623331  0.5870401005705581  0.4691991807621669
  0.6546012291515140  0.9190726740996324  0.4528141846718426
  0.3546121719618606  0.0834502273457188  0.5379172779716245
  0.3592881734900621  0.4189465057682114  0.5349700958416460
  0.3561986844417624  0.7586588921581848  0.5396989588539187
  0.8447180156620541  0.0698309482646306  0.9629160468542053
  0.8496186356705244  0.4065255178955483  0.9644125194047172
  0.8525081297846505  0.7412273892364915  0.9679333831212934
  0.1252834978835734  0.2253529685045044  0.0225432708869435
  0.1401163256817378  0.5902514861375111  0.0386992830737591
  0.1465796694396851  0.9106572110279645  0.0434901013993761
  0.6242450099300502  0.2537099482301077  0.0576876085027887
  0.6216051681919881  0.5810179719597465  0.0562750924501444
  0.6270994078543821  0.9190227231823481  0.0539855461395379
  0.3714750678733260  0.0861090395075325  0.9455551259918467
  0.3452319810597126  0.4191283878517156  0.9218599695605173
  0.3757305861076811  0.7544358609309428  0.9439506969201343
  0.8735167377626969  0.0773208327706780  0.5537678975241593
  0.8822779587694057  0.4104923981606849  0.5564008457428691
  0.8773304559478664  0.7415548886379032  0.5541213361939443
  0.1317948115483075  0.2404075618503806  0.4442103411150687
  0.1321389605798053  0.5785509568194946  0.4399380793764437
  0.1263026553883284  0.9106727402919982  0.4448676122866756
  0.7108477632624816  0.0840917736319650  0.3068658938378371
  0.7341379005952740  0.4178603498170340  0.3245486237813938
  0.7131352813294981  0.7515226478277457  0.3050560156348542
  0.2890560419618845  0.2509682415988337  0.6886671884645265
  0.2915548568641289  0.5805705094988962  0.6955424958023926
  0.2913575144035914  0.9195584026302064  0.6934201023688332
  0.7879990537384666  0.2434740875765130  0.8058578081643107
  0.7895087581234677  0.5767252744918966  0.8065146009417951
  0.7935850410600489  0.9083417682234700  0.8063507555939666
  0.2060371496755370  0.0770080095911192  0.1907633520211542
  0.2312383521496008  0.4646877307031617  0.2343280649269569
  0.2078733141605378  0.7506561013189201  0.1937392829444575
  0.4570518572340974  0.2531921799959759  0.3730485910680841
  0.4588366155423363  0.5822463301822975  0.3701471954972340
  0.4489428101076092  0.9143084432758491  0.3775482830072076
  0.5522617573651873  0.0869031943699489  0.6339825531622487
  0.5570767087465105  0.4182242392828924  0.6303699985288874
  0.5528718693029541  0.7498809127417774  0.6389485573101545
  0.0481802101164725  0.0748228959142558  0.8715283023439183
  0.0472009345075342  0.4094659211794416  0.8698414550062952
  0.0522637992585113  0.7417040720480402  0.8742464929036327
  0.9397163390702891  0.2447214103473212  0.1315747044538606
  0.9443588952168621  0.5770755385673220  0.1315155465643813
  0.9438663009883113  0.9109497055577653  0.1274376750447213
  0.3408745987692499  0.3464191434000116  0.1121346098710706

  0.00000000E+00  0.00000000E+00  0.00000000E+00
  0.00000000E+00  0.00000000E+00  0.00000000E+00
  0.00000000E+00  0.00000000E+00  0.00000000E+00
  0.00000000E+00  0.00000000E+00  0.00000000E+00
  0.00000000E+00  0.00000000E+00  0.00000000E+00
  0.00000000E+00  0.00000000E+00  0.00000000E+00
  0.00000000E+00  0.00000000E+00  0.00000000E+00
  0.00000000E+00  0.00000000E+00  0.00000000E+00
  0.00000000E+00  0.00000000E+00  0.00000000E+00
  0.00000000E+00  0.00000000E+00  0.00000000E+00
  0.00000000E+00  0.00000000E+00  0.00000000E+00
  0.00000000E+00  0.00000000E+00  0.00000000E+00
  0.00000000E+00  0.00000000E+00  0.00000000E+00
  0.00000000E+00  0.00000000E+00  0.00000000E+00
  0.00000000E+00  0.00000000E+00  0.00000000E+00
  0.00000000E+00  0.00000000E+00  0.00000000E+00
  0.00000000E+00  0.00000000E+00  0.00000000E+00
  0.00000000E+00  0.00000000E+00  0.00000000E+00
  0.00000000E+00  0.00000000E+00  0.00000000E+00
  0.00000000E+00  0.00000000E+00  0.00000000E+00
  0.00000000E+00  0.00000000E+00  0.00000000E+00
  0.00000000E+00  0.00000000E+00  0.00000000E+00
  0.00000000E+00  0.00000000E+00  0.00000000E+00
  0.00000000E+00  0.00000000E+00  0.00000000E+00
  0.00000000E+00  0.00000000E+00  0.00000000E+00
  0.00000000E+00  0.00000000E+00  0.00000000E+00
  0.00000000E+00  0.00000000E+00  0.00000000E+00
  0.00000000E+00  0.00000000E+00  0.00000000E+00
  0.00000000E+00  0.00000000E+00  0.00000000E+00
  0.00000000E+00  0.00000000E+00  0.00000000E+00
  0.00000000E+00  0.00000000E+00  0.00000000E+00
  0.00000000E+00  0.00000000E+00  0.00000000E+00
  0.00000000E+00  0.00000000E+00  0.00000000E+00
  0.00000000E+00  0.00000000E+00  0.00000000E+00
  0.00000000E+00  0.00000000E+00  0.00000000E+00
  0.00000000E+00  0.00000000E+00  0.00000000E+00
  0.00000000E+00  0.00000000E+00  0.00000000E+00
  0.00000000E+00  0.00000000E+00  0.00000000E+00
  0.00000000E+00  0.00000000E+00  0.00000000E+00
  0.00000000E+00  0.00000000E+00  0.00000000E+00
  0.00000000E+00  0.00000000E+00  0.00000000E+00
  0.00000000E+00  0.00000000E+00  0.00000000E+00
  0.00000000E+00  0.00000000E+00  0.00000000E+00
  0.00000000E+00  0.00000000E+00  0.00000000E+00
  0.00000000E+00  0.00000000E+00  0.00000000E+00
  0.00000000E+00  0.00000000E+00  0.00000000E+00
  0.00000000E+00  0.00000000E+00  0.00000000E+00
  0.00000000E+00  0.00000000E+00  0.00000000E+00
  0.00000000E+00  0.00000000E+00  0.00000000E+00
  0.00000000E+00  0.00000000E+00  0.00000000E+00
  0.00000000E+00  0.00000000E+00  0.00000000E+00
  0.00000000E+00  0.00000000E+00  0.00000000E+00
  0.00000000E+00  0.00000000E+00  0.00000000E+00
  0.00000000E+00  0.00000000E+00  0.00000000E+00
  0.00000000E+00  0.00000000E+00  0.00000000E+00
  0.00000000E+00  0.00000000E+00  0.00000000E+00
  0.00000000E+00  0.00000000E+00  0.00000000E+00
  0.00000000E+00  0.00000000E+00  0.00000000E+00
  0.00000000E+00  0.00000000E+00  0.00000000E+00
  0.00000000E+00  0.00000000E+00  0.00000000E+00
  0.00000000E+00  0.00000000E+00  0.00000000E+00
