Sb2 Se3                                 
  0.99882000000000204     
    11.9454718211925162    0.0000000000000000    0.0000000000000000
     0.0000000000000000   11.9285311965989376    0.0000000000000000
     0.0000000000000000    0.0000000000000000   11.5287107052303703
   Sb   Se
    24    37
Direct
  0.5335439989605029  0.0865027897769975  0.1754215871251485
  0.5417306999292405  0.4194716508356907  0.1749014033928785
  0.5313495037842408  0.7515684417665213  0.1745328050148243
  0.4734577256338565  0.2531821370287445  0.8307257507472955
  0.4739185150579301  0.5875497377099063  0.8279459003959445
  0.4699750774587836  0.9182146126862584  0.8286218535789248
  0.9748413475599854  0.2422407747791976  0.6754071694169458
  0.9703905359546362  0.5792637822663483  0.6766095439246125
  0.9688796929430348  0.9113650088030570  0.6653217899184657
  0.0275813275123303  0.0823561511349957  0.3231146962581276
  0.0254885768392808  0.4185939006900576  0.3454269751374895
  0.0214903893060624  0.7515163369097289  0.3313456609214903
  0.6558604380322332  0.2517675834505964  0.4687488271923604
  0.6518476844655957  0.5880628065529965  0.4672224471810545
  0.6477777292612312  0.9193521764905425  0.4637556462515529
  0.3586286909794221  0.0863991371866529  0.5390717065069971
  0.3607531561151044  0.4181556396302234  0.5385141637996488
  0.3566980269984754  0.7513824277299411  0.5377908016646237
  0.8478999631951664  0.0715108084081249  0.9580661061338144
  0.8569394470630970  0.4070479898454470  0.9624802174682153
  0.8492382447511720  0.7385693011715835  0.9664556310956791
  0.1416992103276448  0.2216413203562801  0.0173948117059609
  0.1411636640935277  0.5872582284156866  0.0316135134245726
  0.1421871821707610  0.9033126570922397  0.0335093478314921
  0.6318740485561644  0.2512412662748444  0.0545108056939597
  0.6326010748370957  0.5887206904643556  0.0548763447584691
  0.6272226970232425  0.9196847767086440  0.0559630686152004
  0.3740074586339378  0.0859412043678918  0.9459691773524627
  0.3783201333680126  0.4219831204966030  0.9459983020025002
  0.3730379725791445  0.7510361274733112  0.9472374685868112
  0.8750118934136255  0.0787419371643485  0.5523004397906885
  0.8799369741127164  0.4103655456147701  0.5537494807368538
  0.8685774554867646  0.7438993027474555  0.5554104524750610
  0.1321453827451672  0.2458799391932114  0.4387841547390811
  0.1209274159654054  0.5918050266009373  0.4561437147348961
  0.1252694930803658  0.9149412096029994  0.4434278784731470
  0.7144453882762719  0.0859606899600290  0.3089339452103532
  0.7198250013450070  0.4173754758119058  0.3120774644222479
  0.7126717322029739  0.7526604441927162  0.3082202875451860
  0.2931068223885882  0.2527665698225553  0.6936555577874337
  0.2933082518343740  0.5853816753506029  0.6931675156701409
  0.2904002296589877  0.9177080378182475  0.6922389020676913
  0.7916166625640666  0.2450667920536461  0.8032550842068205
  0.7877605275584461  0.5734913601025570  0.8074683553908292
  0.7888155386629757  0.9085240823511399  0.8056130092215624
  0.2065535125153796  0.0635918063326857  0.1843898460540817
  0.2270472282148807  0.4752023278997176  0.2372821589813640
  0.2036576297474376  0.7482891714138762  0.1913946513597609
  0.4579833443775873  0.2520012294939052  0.3779649232766741
  0.4555499121239178  0.5848404553829917  0.3730309636857977
  0.4498509224125570  0.9195923185603583  0.3707400842826489
  0.5559111038892978  0.0840451108425373  0.6323696784378526
  0.5579239058254243  0.4195873529556237  0.6318518267274166
  0.5553329369007426  0.7527498939167533  0.6294628257243923
  0.0458259098909547  0.0687446533131450  0.8606951663350420
  0.0553694491937089  0.4087855451758739  0.8678442180936269
  0.0494709728210741  0.7389445262650393  0.8705373308004126
  0.9568483791252397  0.2489811233584537  0.1296318857980012
  0.9448246288723652  0.5784458048787108  0.1267002533533905
  0.9423852353026630  0.9108003682516630  0.1233798806959689
  0.2919339461001162  0.3059376370680816  0.1710825078241220

  0.00000000E+00  0.00000000E+00  0.00000000E+00
  0.00000000E+00  0.00000000E+00  0.00000000E+00
  0.00000000E+00  0.00000000E+00  0.00000000E+00
  0.00000000E+00  0.00000000E+00  0.00000000E+00
  0.00000000E+00  0.00000000E+00  0.00000000E+00
  0.00000000E+00  0.00000000E+00  0.00000000E+00
  0.00000000E+00  0.00000000E+00  0.00000000E+00
  0.00000000E+00  0.00000000E+00  0.00000000E+00
  0.00000000E+00  0.00000000E+00  0.00000000E+00
  0.00000000E+00  0.00000000E+00  0.00000000E+00
  0.00000000E+00  0.00000000E+00  0.00000000E+00
  0.00000000E+00  0.00000000E+00  0.00000000E+00
  0.00000000E+00  0.00000000E+00  0.00000000E+00
  0.00000000E+00  0.00000000E+00  0.00000000E+00
  0.00000000E+00  0.00000000E+00  0.00000000E+00
  0.00000000E+00  0.00000000E+00  0.00000000E+00
  0.00000000E+00  0.00000000E+00  0.00000000E+00
  0.00000000E+00  0.00000000E+00  0.00000000E+00
  0.00000000E+00  0.00000000E+00  0.00000000E+00
  0.00000000E+00  0.00000000E+00  0.00000000E+00
  0.00000000E+00  0.00000000E+00  0.00000000E+00
  0.00000000E+00  0.00000000E+00  0.00000000E+00
  0.00000000E+00  0.00000000E+00  0.00000000E+00
  0.00000000E+00  0.00000000E+00  0.00000000E+00
  0.00000000E+00  0.00000000E+00  0.00000000E+00
  0.00000000E+00  0.00000000E+00  0.00000000E+00
  0.00000000E+00  0.00000000E+00  0.00000000E+00
  0.00000000E+00  0.00000000E+00  0.00000000E+00
  0.00000000E+00  0.00000000E+00  0.00000000E+00
  0.00000000E+00  0.00000000E+00  0.00000000E+00
  0.00000000E+00  0.00000000E+00  0.00000000E+00
  0.00000000E+00  0.00000000E+00  0.00000000E+00
  0.00000000E+00  0.00000000E+00  0.00000000E+00
  0.00000000E+00  0.00000000E+00  0.00000000E+00
  0.00000000E+00  0.00000000E+00  0.00000000E+00
  0.00000000E+00  0.00000000E+00  0.00000000E+00
  0.00000000E+00  0.00000000E+00  0.00000000E+00
  0.00000000E+00  0.00000000E+00  0.00000000E+00
  0.00000000E+00  0.00000000E+00  0.00000000E+00
  0.00000000E+00  0.00000000E+00  0.00000000E+00
  0.00000000E+00  0.00000000E+00  0.00000000E+00
  0.00000000E+00  0.00000000E+00  0.00000000E+00
  0.00000000E+00  0.00000000E+00  0.00000000E+00
  0.00000000E+00  0.00000000E+00  0.00000000E+00
  0.00000000E+00  0.00000000E+00  0.00000000E+00
  0.00000000E+00  0.00000000E+00  0.00000000E+00
  0.00000000E+00  0.00000000E+00  0.00000000E+00
  0.00000000E+00  0.00000000E+00  0.00000000E+00
  0.00000000E+00  0.00000000E+00  0.00000000E+00
  0.00000000E+00  0.00000000E+00  0.00000000E+00
  0.00000000E+00  0.00000000E+00  0.00000000E+00
  0.00000000E+00  0.00000000E+00  0.00000000E+00
  0.00000000E+00  0.00000000E+00  0.00000000E+00
  0.00000000E+00  0.00000000E+00  0.00000000E+00
  0.00000000E+00  0.00000000E+00  0.00000000E+00
  0.00000000E+00  0.00000000E+00  0.00000000E+00
  0.00000000E+00  0.00000000E+00  0.00000000E+00
  0.00000000E+00  0.00000000E+00  0.00000000E+00
  0.00000000E+00  0.00000000E+00  0.00000000E+00
  0.00000000E+00  0.00000000E+00  0.00000000E+00
  0.00000000E+00  0.00000000E+00  0.00000000E+00
