Sb2 Se3                                 
  0.99882000000000204     
    11.9454718211925162    0.0000000000000000    0.0000000000000000
     0.0000000000000000   11.9285311965989376    0.0000000000000000
     0.0000000000000000    0.0000000000000000   11.5287107052303703
   Sb   Se
    24    37
Direct
  0.5297936852160029  0.0867574440936039  0.1716797260404951
  0.5540925370361579  0.4211029906262995  0.1947042094076825
  0.5316183213566021  0.7502565426302935  0.1705268487325634
  0.4676122364794424  0.2461431609207944  0.8219149874265141
  0.4767707997573789  0.5988335386377811  0.8177898560965178
  0.4714895334827445  0.9211460333310355  0.8293257210388822
  0.9720863309490945  0.2424420968353846  0.6783890452637914
  0.9729757265430217  0.5765578993740705  0.6827458385230539
  0.9697267820025660  0.9099499255414804  0.6642211938378424
  0.0272940820678671  0.0788141268532104  0.3271841491535560
  0.0266995428034137  0.4096894545041008  0.3405395417727929
  0.0232085990495527  0.7471929381501417  0.3312839581983709
  0.6519947603047803  0.2512467377457299  0.4749678143896767
  0.6569990992761933  0.5865341154905568  0.4712801559344707
  0.6545361150351602  0.9202572208736651  0.4555341019896854
  0.3552375224318507  0.0840508811930654  0.5375415145282350
  0.3606043345017688  0.4194567129129194  0.5339906740695464
  0.3583552430931589  0.7548341345491285  0.5385391846619678
  0.8445197941457042  0.0690764242152822  0.9621338519896665
  0.8499229203832931  0.4053272749991474  0.9640489737773930
  0.8505768391653729  0.7393629288290987  0.9677795424727246
  0.1313623967903279  0.2219254917291112  0.0140950478676801
  0.1393788819768224  0.5919434176593863  0.0384421404151439
  0.1451119166542298  0.9101289303374855  0.0408097126081475
  0.6257474107644306  0.2532375577705150  0.0578080449952102
  0.6301117525994985  0.5864499782402245  0.0558073432499180
  0.6275413071195257  0.9198394626144039  0.0551632383906936
  0.3712556284020992  0.0855757432967405  0.9467724797755245
  0.3420780418665002  0.4159878256068077  0.9272085545581604
  0.3760728512449875  0.7538252517110894  0.9450541893582657
  0.8731277813219729  0.0770339816916377  0.5539477506237899
  0.8819647818665021  0.4105530368505515  0.5568373590318750
  0.8753743361877908  0.7419280224286179  0.5529855584413867
  0.1313936448887392  0.2417589423192193  0.4427836723096965
  0.1300352177468283  0.5820772226307771  0.4426592720800281
  0.1267068919123200  0.9124497950733874  0.4447016809054296
  0.7119263453812222  0.0842383915840862  0.3080691602085396
  0.7343614109143621  0.4180112284815897  0.3224773570291627
  0.7137427201146584  0.7519496260724042  0.3076297919293682
  0.2889415824724318  0.2507942055735003  0.6883707307551756
  0.2916752388540272  0.5794723807832892  0.6963891266676303
  0.2904140808008900  0.9192230695872595  0.6927753151283920
  0.7875066531516415  0.2428944096122154  0.8058327475846078
  0.7886206524930551  0.5775096091649773  0.8068912552994653
  0.7905698606331768  0.9065489436981207  0.8066467068775800
  0.2062502669937089  0.0764321809988877  0.1885240355417571
  0.2322026518242315  0.4679248787430796  0.2402547579387349
  0.2071302347299754  0.7518542606690989  0.1932929459909534
  0.4575506024335761  0.2533580813710767  0.3738465020773178
  0.4596360175894604  0.5863448830893486  0.3775701542666547
  0.4496217900661476  0.9139733165108793  0.3789374762176896
  0.5522544906323458  0.0873052109611105  0.6347538051192905
  0.5578320696433559  0.4177727796577607  0.6307197375239446
  0.5531334791800868  0.7489800623341706  0.6427225145795501
  0.0438601877223215  0.0689526595341548  0.8660915558288684
  0.0462443775928615  0.4104422228284200  0.8681181564514061
  0.0523270764886356  0.7405069866410781  0.8758513349337916
  0.9463928340597826  0.2463505185436719  0.1280643748003507
  0.9439587987299543  0.5767063421451434  0.1320926191206262
  0.9436512390947347  0.9118395398433432  0.1271325956182950
  0.3275096919796562  0.3368669693045949  0.1171062755945283

  0.00000000E+00  0.00000000E+00  0.00000000E+00
  0.00000000E+00  0.00000000E+00  0.00000000E+00
  0.00000000E+00  0.00000000E+00  0.00000000E+00
  0.00000000E+00  0.00000000E+00  0.00000000E+00
  0.00000000E+00  0.00000000E+00  0.00000000E+00
  0.00000000E+00  0.00000000E+00  0.00000000E+00
  0.00000000E+00  0.00000000E+00  0.00000000E+00
  0.00000000E+00  0.00000000E+00  0.00000000E+00
  0.00000000E+00  0.00000000E+00  0.00000000E+00
  0.00000000E+00  0.00000000E+00  0.00000000E+00
  0.00000000E+00  0.00000000E+00  0.00000000E+00
  0.00000000E+00  0.00000000E+00  0.00000000E+00
  0.00000000E+00  0.00000000E+00  0.00000000E+00
  0.00000000E+00  0.00000000E+00  0.00000000E+00
  0.00000000E+00  0.00000000E+00  0.00000000E+00
  0.00000000E+00  0.00000000E+00  0.00000000E+00
  0.00000000E+00  0.00000000E+00  0.00000000E+00
  0.00000000E+00  0.00000000E+00  0.00000000E+00
  0.00000000E+00  0.00000000E+00  0.00000000E+00
  0.00000000E+00  0.00000000E+00  0.00000000E+00
  0.00000000E+00  0.00000000E+00  0.00000000E+00
  0.00000000E+00  0.00000000E+00  0.00000000E+00
  0.00000000E+00  0.00000000E+00  0.00000000E+00
  0.00000000E+00  0.00000000E+00  0.00000000E+00
  0.00000000E+00  0.00000000E+00  0.00000000E+00
  0.00000000E+00  0.00000000E+00  0.00000000E+00
  0.00000000E+00  0.00000000E+00  0.00000000E+00
  0.00000000E+00  0.00000000E+00  0.00000000E+00
  0.00000000E+00  0.00000000E+00  0.00000000E+00
  0.00000000E+00  0.00000000E+00  0.00000000E+00
  0.00000000E+00  0.00000000E+00  0.00000000E+00
  0.00000000E+00  0.00000000E+00  0.00000000E+00
  0.00000000E+00  0.00000000E+00  0.00000000E+00
  0.00000000E+00  0.00000000E+00  0.00000000E+00
  0.00000000E+00  0.00000000E+00  0.00000000E+00
  0.00000000E+00  0.00000000E+00  0.00000000E+00
  0.00000000E+00  0.00000000E+00  0.00000000E+00
  0.00000000E+00  0.00000000E+00  0.00000000E+00
  0.00000000E+00  0.00000000E+00  0.00000000E+00
  0.00000000E+00  0.00000000E+00  0.00000000E+00
  0.00000000E+00  0.00000000E+00  0.00000000E+00
  0.00000000E+00  0.00000000E+00  0.00000000E+00
  0.00000000E+00  0.00000000E+00  0.00000000E+00
  0.00000000E+00  0.00000000E+00  0.00000000E+00
  0.00000000E+00  0.00000000E+00  0.00000000E+00
  0.00000000E+00  0.00000000E+00  0.00000000E+00
  0.00000000E+00  0.00000000E+00  0.00000000E+00
  0.00000000E+00  0.00000000E+00  0.00000000E+00
  0.00000000E+00  0.00000000E+00  0.00000000E+00
  0.00000000E+00  0.00000000E+00  0.00000000E+00
  0.00000000E+00  0.00000000E+00  0.00000000E+00
  0.00000000E+00  0.00000000E+00  0.00000000E+00
  0.00000000E+00  0.00000000E+00  0.00000000E+00
  0.00000000E+00  0.00000000E+00  0.00000000E+00
  0.00000000E+00  0.00000000E+00  0.00000000E+00
  0.00000000E+00  0.00000000E+00  0.00000000E+00
  0.00000000E+00  0.00000000E+00  0.00000000E+00
  0.00000000E+00  0.00000000E+00  0.00000000E+00
  0.00000000E+00  0.00000000E+00  0.00000000E+00
  0.00000000E+00  0.00000000E+00  0.00000000E+00
  0.00000000E+00  0.00000000E+00  0.00000000E+00
