Sb2 Se3                                 
  0.99882000000000204     
    11.9454718211925162    0.0000000000000000    0.0000000000000000
     0.0000000000000000   11.9285311965989376    0.0000000000000000
     0.0000000000000000    0.0000000000000000   11.5287107052303703
   Sb   Se
    24    37
Direct
  0.5266767723634629  0.0840139418373661  0.1725861209834845
  0.5536901073390654  0.4179290188932476  0.2023884525035461
  0.5254914929759738  0.7470011510893947  0.1706204233404432
  0.4739776291549928  0.2446007081958541  0.8215120229030424
  0.4803519239238614  0.6018819806006726  0.8091300289081720
  0.4804908216191636  0.9212512722947473  0.8405060454023249
  0.9713237168958513  0.2419045944052911  0.6802588365114310
  0.9733324610457353  0.5825936156290344  0.6868170739811470
  0.9723716844189679  0.9115604186832268  0.6609858169220683
  0.0266764255689562  0.0791850309166043  0.3294562451683163
  0.0156085812972993  0.4074320804014180  0.3598386814457551
  0.0243191364466280  0.7448822443851237  0.3282569553741241
  0.6495490785012840  0.2423149508407740  0.4788579670013751
  0.6544200274734782  0.5849289648016934  0.4647228929247733
  0.6542809695543713  0.9158602828156482  0.4510017392674454
  0.3538472927317813  0.0803375045066625  0.5397034306366587
  0.3565798967930111  0.4157451407185085  0.5399662403181341
  0.3517645253799093  0.7617896043565605  0.5420604143178013
  0.8451870549333023  0.0726880988502300  0.9628066927309560
  0.8499782133188398  0.4094784413593205  0.9654755764668498
  0.8532156377304319  0.7448891121762253  0.9677398983962842
  0.1233968377737735  0.2299309109248961  0.0251646015553527
  0.1407221565453252  0.5915244064477652  0.0369268217007329
  0.1474240910923829  0.9134224856200447  0.0453574084086293
  0.6215194140573037  0.2534148434571996  0.0601489441344684
  0.6142267043860720  0.5739273350661441  0.0562550909299797
  0.6256359028760934  0.9171738302876767  0.0523297326010332
  0.3721770168436047  0.0852486276981843  0.9448257109764147
  0.3516559410300223  0.4182801192126960  0.9234688460975019
  0.3763467092188319  0.7539396324759292  0.9404523247397597
  0.8732036968117238  0.0789555188837580  0.5528797290057622
  0.8797453475522301  0.4117947813732877  0.5558987827156829
  0.8770532730550271  0.7429924123937641  0.5532355377634600
  0.1321476909635239  0.2416260134132689  0.4458732946070905
  0.1335443782422195  0.5781894830397827  0.4384933320335855
  0.1257225197196889  0.9112312546836090  0.4446512840985844
  0.7105333214783337  0.0805914187675972  0.3060665732949686
  0.7328595760963518  0.4168283384528306  0.3235715502020409
  0.7120287752997456  0.7499349628060609  0.3012978944045982
  0.2906544305523586  0.2496653983948796  0.6913500481566771
  0.2906091642546637  0.5784798782846092  0.6967213811033266
  0.2928836601562973  0.9203371534825578  0.6949034103986014
  0.7866605324254184  0.2452837104292284  0.8063075452402504
  0.7882893081357937  0.5779043554718778  0.8067632347782203
  0.7948667195910857  0.9105266077339358  0.8061700256551306
  0.2068502697175222  0.0788219253670098  0.1917613641650632
  0.2341330160004722  0.4655396361974905  0.2327529611983441
  0.2086898499744083  0.7516214618384137  0.1930570714271062
  0.4590673844250138  0.2536774936848925  0.3686177116772243
  0.4593536679459929  0.5739782041077023  0.3592233273951595
  0.4473846001404524  0.9111364671470015  0.3769658160038989
  0.5536669611698213  0.0852206502986681  0.6306609872934976
  0.5571796821326525  0.4168538960708154  0.6289411439110022
  0.5509645856430948  0.7474552967205169  0.6347240264769948
  0.0496248566312930  0.0795969446554230  0.8730681611852750
  0.0473856178488530  0.4108130812868478  0.8699546325462709
  0.0521353084113382  0.7432419226928552  0.8726664517712889
  0.9376322005048323  0.2457315034735642  0.1322629161498334
  0.9455633434795263  0.5782710928758439  0.1304756640334415
  0.9438501280305522  0.9123067744037664  0.1267774057466202
  0.3501699103199788  0.3522620126199928  0.1156436659130631

  0.00000000E+00  0.00000000E+00  0.00000000E+00
  0.00000000E+00  0.00000000E+00  0.00000000E+00
  0.00000000E+00  0.00000000E+00  0.00000000E+00
  0.00000000E+00  0.00000000E+00  0.00000000E+00
  0.00000000E+00  0.00000000E+00  0.00000000E+00
  0.00000000E+00  0.00000000E+00  0.00000000E+00
  0.00000000E+00  0.00000000E+00  0.00000000E+00
  0.00000000E+00  0.00000000E+00  0.00000000E+00
  0.00000000E+00  0.00000000E+00  0.00000000E+00
  0.00000000E+00  0.00000000E+00  0.00000000E+00
  0.00000000E+00  0.00000000E+00  0.00000000E+00
  0.00000000E+00  0.00000000E+00  0.00000000E+00
  0.00000000E+00  0.00000000E+00  0.00000000E+00
  0.00000000E+00  0.00000000E+00  0.00000000E+00
  0.00000000E+00  0.00000000E+00  0.00000000E+00
  0.00000000E+00  0.00000000E+00  0.00000000E+00
  0.00000000E+00  0.00000000E+00  0.00000000E+00
  0.00000000E+00  0.00000000E+00  0.00000000E+00
  0.00000000E+00  0.00000000E+00  0.00000000E+00
  0.00000000E+00  0.00000000E+00  0.00000000E+00
  0.00000000E+00  0.00000000E+00  0.00000000E+00
  0.00000000E+00  0.00000000E+00  0.00000000E+00
  0.00000000E+00  0.00000000E+00  0.00000000E+00
  0.00000000E+00  0.00000000E+00  0.00000000E+00
  0.00000000E+00  0.00000000E+00  0.00000000E+00
  0.00000000E+00  0.00000000E+00  0.00000000E+00
  0.00000000E+00  0.00000000E+00  0.00000000E+00
  0.00000000E+00  0.00000000E+00  0.00000000E+00
  0.00000000E+00  0.00000000E+00  0.00000000E+00
  0.00000000E+00  0.00000000E+00  0.00000000E+00
  0.00000000E+00  0.00000000E+00  0.00000000E+00
  0.00000000E+00  0.00000000E+00  0.00000000E+00
  0.00000000E+00  0.00000000E+00  0.00000000E+00
  0.00000000E+00  0.00000000E+00  0.00000000E+00
  0.00000000E+00  0.00000000E+00  0.00000000E+00
  0.00000000E+00  0.00000000E+00  0.00000000E+00
  0.00000000E+00  0.00000000E+00  0.00000000E+00
  0.00000000E+00  0.00000000E+00  0.00000000E+00
  0.00000000E+00  0.00000000E+00  0.00000000E+00
  0.00000000E+00  0.00000000E+00  0.00000000E+00
  0.00000000E+00  0.00000000E+00  0.00000000E+00
  0.00000000E+00  0.00000000E+00  0.00000000E+00
  0.00000000E+00  0.00000000E+00  0.00000000E+00
  0.00000000E+00  0.00000000E+00  0.00000000E+00
  0.00000000E+00  0.00000000E+00  0.00000000E+00
  0.00000000E+00  0.00000000E+00  0.00000000E+00
  0.00000000E+00  0.00000000E+00  0.00000000E+00
  0.00000000E+00  0.00000000E+00  0.00000000E+00
  0.00000000E+00  0.00000000E+00  0.00000000E+00
  0.00000000E+00  0.00000000E+00  0.00000000E+00
  0.00000000E+00  0.00000000E+00  0.00000000E+00
  0.00000000E+00  0.00000000E+00  0.00000000E+00
  0.00000000E+00  0.00000000E+00  0.00000000E+00
  0.00000000E+00  0.00000000E+00  0.00000000E+00
  0.00000000E+00  0.00000000E+00  0.00000000E+00
  0.00000000E+00  0.00000000E+00  0.00000000E+00
  0.00000000E+00  0.00000000E+00  0.00000000E+00
  0.00000000E+00  0.00000000E+00  0.00000000E+00
  0.00000000E+00  0.00000000E+00  0.00000000E+00
  0.00000000E+00  0.00000000E+00  0.00000000E+00
  0.00000000E+00  0.00000000E+00  0.00000000E+00
