Sb2 Se3                                 
  0.99882000000000204     
    11.9454718211925162    0.0000000000000000    0.0000000000000000
     0.0000000000000000   11.9285311965989376    0.0000000000000000
     0.0000000000000000    0.0000000000000000   11.5287107052303703
   Sb   Se
    24    35
Direct
  0.5270382867304134  0.0833322704600111  0.1740982390242742
  0.5337947626300690  0.4209312866476224  0.1744342941062108
  0.5337857608434566  0.7457315619978075  0.1744433305820847
  0.4708745847420303  0.2511281115031828  0.8278334259663992
  0.4727135253852217  0.5833287224483413  0.8320538179313439
  0.4708679982069872  0.9155474165864856  0.8278438342495056
  0.9707776449401659  0.2507957424450079  0.6697490927988575
  0.9682027606939431  0.5833330662879956  0.6693294860296434
  0.9707709126131554  0.9158755372884505  0.6697436058308444
  0.0303619763747040  0.0833292165967839  0.3269557258088937
  0.0292882169797936  0.4171652595658543  0.3279774146051752
  0.0292845746770273  0.7495032349310307  0.3279671503336498
  0.6482390578723880  0.2509001616289492  0.4636087666487622
  0.6204746438178396  0.5833086885420838  0.4507085120243496
  0.6482431574846731  0.9157501140162235  0.4636081273943325
  0.3582642089448052  0.0833528317795354  0.5279138271059584
  0.3597071503253498  0.4191518813878560  0.5447762460982096
  0.3596996084577975  0.7475500011523016  0.5447842340614494
  0.8535111725833729  0.0833278513910016  0.9629440185633247
  0.8547548008982029  0.4166795723178859  0.9617280044958064
  0.8547641246279873  0.7499850984531057  0.9617288530456609
  0.1448585665312885  0.2499341397890632  0.0368372954003670
  0.1462839518305604  0.5833260188790951  0.0387644845323386
  0.1448675096921603  0.9167320725775742  0.0368377596200340
  0.6211403892185600  0.2505005476509016  0.0538045376909714
  0.6321939097237248  0.5833447112119813  0.0535382983595742
  0.6211415528545358  0.9161518071080196  0.0538177826817222
  0.3670112008670979  0.0833448076642716  0.9371511896727188
  0.3737329801666222  0.4165495086205110  0.9471578730535308
  0.3737363874559843  0.7501097787764374  0.9471568738855275
  0.8723398721154608  0.0833443132131863  0.5535177815128278
  0.8702836765698452  0.4153410467106838  0.5553367910366901
  0.8702893218578551  0.7513238532269041  0.5553275064946207
  0.1269961429030049  0.2503413424345123  0.4453341820141269
  0.1258879347158877  0.5833424291282721  0.4467641976846971
  0.1270030094711605  0.9163146505006892  0.4453279815026381
  0.7090086797030595  0.0833473651297463  0.3055080478035469
  0.7109411472552554  0.4185511112850546  0.3081898296916541
  0.7109338206023578  0.7480664220295076  0.3082047777771711
  0.2901061770537799  0.2542939620490027  0.6877081351386660
  0.2907247562203494  0.5833562889332313  0.6986991235571546
  0.2901092744364879  0.9124123900238607  0.6877155915862144
  0.7902417924995909  0.2491921209849088  0.8068899706625354
  0.7892183259176201  0.5833516156405093  0.8071549626918831
  0.7902435014902601  0.9174484024795349  0.8068848455789844
  0.2111126508992629  0.0833525403047665  0.1929066077353796
  0.2100758676350990  0.4172160536888009  0.1939597170640149
  0.2100796965492885  0.7494242457141768  0.1939522436491256
  0.4488536701259866  0.2516514159814797  0.3721960476827633
  0.4488611023826565  0.9150179951652939  0.3722018290146324
  0.5529151104794271  0.0833552084077302  0.6270837570801263
  0.5575743268844895  0.4176577252136668  0.6320174257711664
  0.5575780936742679  0.7489648585541713  0.6320039107442331
  0.0530494690276762  0.0833522389543923  0.8743726264047676
  0.0529988314871993  0.4164466051005559  0.8707629555587838
  0.0530136593854523  0.7502021107860529  0.8707665897404594
  0.9472226253882950  0.2502976546646014  0.1299690736891908
  0.9473999478817532  0.5833496799568143  0.1287453343707496
  0.9472361754098377  0.9163500006991918  0.1299732670117900

  0.00000000E+00  0.00000000E+00  0.00000000E+00
  0.00000000E+00  0.00000000E+00  0.00000000E+00
  0.00000000E+00  0.00000000E+00  0.00000000E+00
  0.00000000E+00  0.00000000E+00  0.00000000E+00
  0.00000000E+00  0.00000000E+00  0.00000000E+00
  0.00000000E+00  0.00000000E+00  0.00000000E+00
  0.00000000E+00  0.00000000E+00  0.00000000E+00
  0.00000000E+00  0.00000000E+00  0.00000000E+00
  0.00000000E+00  0.00000000E+00  0.00000000E+00
  0.00000000E+00  0.00000000E+00  0.00000000E+00
  0.00000000E+00  0.00000000E+00  0.00000000E+00
  0.00000000E+00  0.00000000E+00  0.00000000E+00
  0.00000000E+00  0.00000000E+00  0.00000000E+00
  0.00000000E+00  0.00000000E+00  0.00000000E+00
  0.00000000E+00  0.00000000E+00  0.00000000E+00
  0.00000000E+00  0.00000000E+00  0.00000000E+00
  0.00000000E+00  0.00000000E+00  0.00000000E+00
  0.00000000E+00  0.00000000E+00  0.00000000E+00
  0.00000000E+00  0.00000000E+00  0.00000000E+00
  0.00000000E+00  0.00000000E+00  0.00000000E+00
  0.00000000E+00  0.00000000E+00  0.00000000E+00
  0.00000000E+00  0.00000000E+00  0.00000000E+00
  0.00000000E+00  0.00000000E+00  0.00000000E+00
  0.00000000E+00  0.00000000E+00  0.00000000E+00
  0.00000000E+00  0.00000000E+00  0.00000000E+00
  0.00000000E+00  0.00000000E+00  0.00000000E+00
  0.00000000E+00  0.00000000E+00  0.00000000E+00
  0.00000000E+00  0.00000000E+00  0.00000000E+00
  0.00000000E+00  0.00000000E+00  0.00000000E+00
  0.00000000E+00  0.00000000E+00  0.00000000E+00
  0.00000000E+00  0.00000000E+00  0.00000000E+00
  0.00000000E+00  0.00000000E+00  0.00000000E+00
  0.00000000E+00  0.00000000E+00  0.00000000E+00
  0.00000000E+00  0.00000000E+00  0.00000000E+00
  0.00000000E+00  0.00000000E+00  0.00000000E+00
  0.00000000E+00  0.00000000E+00  0.00000000E+00
  0.00000000E+00  0.00000000E+00  0.00000000E+00
  0.00000000E+00  0.00000000E+00  0.00000000E+00
  0.00000000E+00  0.00000000E+00  0.00000000E+00
  0.00000000E+00  0.00000000E+00  0.00000000E+00
  0.00000000E+00  0.00000000E+00  0.00000000E+00
  0.00000000E+00  0.00000000E+00  0.00000000E+00
  0.00000000E+00  0.00000000E+00  0.00000000E+00
  0.00000000E+00  0.00000000E+00  0.00000000E+00
  0.00000000E+00  0.00000000E+00  0.00000000E+00
  0.00000000E+00  0.00000000E+00  0.00000000E+00
  0.00000000E+00  0.00000000E+00  0.00000000E+00
  0.00000000E+00  0.00000000E+00  0.00000000E+00
  0.00000000E+00  0.00000000E+00  0.00000000E+00
  0.00000000E+00  0.00000000E+00  0.00000000E+00
  0.00000000E+00  0.00000000E+00  0.00000000E+00
  0.00000000E+00  0.00000000E+00  0.00000000E+00
  0.00000000E+00  0.00000000E+00  0.00000000E+00
  0.00000000E+00  0.00000000E+00  0.00000000E+00
  0.00000000E+00  0.00000000E+00  0.00000000E+00
  0.00000000E+00  0.00000000E+00  0.00000000E+00
  0.00000000E+00  0.00000000E+00  0.00000000E+00
  0.00000000E+00  0.00000000E+00  0.00000000E+00
  0.00000000E+00  0.00000000E+00  0.00000000E+00
