Sb2 Se3                                 
  0.99882000000000204     
    11.9454718211925162    0.0000000000000000    0.0000000000000000
     0.0000000000000000   11.9285311965989376    0.0000000000000000
     0.0000000000000000    0.0000000000000000   11.5287107052303703
   Sb   Se
    24    35
Direct
  0.5268635130804309  0.0833683315436643  0.1853115350813166
  0.5221094965428209  0.4201347035544946  0.1618214195582927
  0.5221171379126625  0.7466060021580588  0.1618077459898861
  0.4790627403160131  0.2504914756479035  0.8287375682944389
  0.4796177881507548  0.5833458468650483  0.8351075837996372
  0.4790761052584568  0.9162237539974641  0.8287598254097738
  0.9690156640454428  0.2506747817906213  0.6711178754208473
  0.9677607940279529  0.5833013057614860  0.6706410075476602
  0.9690180468500675  0.9159259357837193  0.6711031240556329
  0.0360106021301631  0.0833014324916574  0.3283533763970860
  0.0306275003686246  0.4167787225300266  0.3303919884716913
  0.0306348620204326  0.7498251509205898  0.3303810181671687
  0.6516022349570636  0.2516462776938367  0.4643737302145356
  0.5699207788728679  0.5833911773231459  0.4287040656110094
  0.6516150134557730  0.9151025499073637  0.4643731544256049
  0.3637907934808678  0.0833502419117788  0.5180622210121232
  0.3503883384190941  0.4186455806798551  0.5491958170552014
  0.3503912078415632  0.7481013023305585  0.5492108777897902
  0.8552735271102473  0.0832810464810036  0.9634765214156341
  0.8559598259811383  0.4164736336139306  0.9629056794710437
  0.8559716683460425  0.7501108624035945  0.9629077439887285
  0.1451200065402231  0.2511255993663278  0.0381297850375126
  0.1454719186502414  0.5832790589475567  0.0397893363030591
  0.1451301182246126  0.9154464884951055  0.0381356807508054
  0.6254024337808837  0.2550199137439033  0.0624220035400934
  0.6286203933757928  0.5833728022994923  0.0503927387692986
  0.6254031772209585  0.9117286361983680  0.0623963367887203
  0.3754820178977850  0.0833690794419719  0.9332676674097253
  0.3775457066926627  0.4160404213037618  0.9470094963242232
  0.3775486949803729  0.7506641839271735  0.9469939986025456
  0.8731322415941336  0.0833104099298084  0.5520765677318782
  0.8710968588213333  0.4155364525276544  0.5539464141339981
  0.8711082681198361  0.7510613779958716  0.5539272314466095
  0.1299110253805593  0.2514913488117622  0.4483201887167673
  0.1274114738815517  0.5833076872278419  0.4483973851199275
  0.1299263758335273  0.9151112765918396  0.4483083987314859
  0.7126036244072357  0.0833765419923736  0.3061138783158947
  0.6988795568531971  0.4333018019756402  0.3178096927890269
  0.6988852515133080  0.7334965299201117  0.3177931301120568
  0.2978733085979310  0.2570730584370919  0.6911787306254853
  0.2915229993458617  0.5833736398417017  0.7029631461751704
  0.2978851357996994  0.9096930539088776  0.6911876957987299
  0.7890135170405947  0.2492246541428873  0.8082138921686353
  0.7890393062632661  0.5833207235280311  0.8085058112750073
  0.7890251588669683  0.9173381777817846  0.8081990191431577
  0.2152492318438677  0.0833208639455809  0.1923607976036807
  0.2110047728726258  0.4173048703614931  0.1944189824185314
  0.2110228535276322  0.7492539243882872  0.1944113976791373
  0.4501913399989479  0.2494877148867438  0.3714493216505030
  0.4501940063552838  0.9172051947457608  0.3714657171159929
  0.5560627235880586  0.0833945021686273  0.6246705671060169
  0.5625019266690627  0.4308867794539711  0.6146515717167311
  0.5625063527746307  0.7358839525948412  0.6146736842647751
  0.0531444584524248  0.0833156762482246  0.8741199132688802
  0.0533870400352906  0.4161439787230281  0.8709685253351638
  0.0534060152659933  0.7504396909207781  0.8709763703601918
  0.9483052432525476  0.2496027211797741  0.1311765922446897
  0.9475203509727548  0.5833187473236547  0.1300186024572276
  0.9483215137324137  0.9169650159991590  0.1311870636436576

  0.00000000E+00  0.00000000E+00  0.00000000E+00
  0.00000000E+00  0.00000000E+00  0.00000000E+00
  0.00000000E+00  0.00000000E+00  0.00000000E+00
  0.00000000E+00  0.00000000E+00  0.00000000E+00
  0.00000000E+00  0.00000000E+00  0.00000000E+00
  0.00000000E+00  0.00000000E+00  0.00000000E+00
  0.00000000E+00  0.00000000E+00  0.00000000E+00
  0.00000000E+00  0.00000000E+00  0.00000000E+00
  0.00000000E+00  0.00000000E+00  0.00000000E+00
  0.00000000E+00  0.00000000E+00  0.00000000E+00
  0.00000000E+00  0.00000000E+00  0.00000000E+00
  0.00000000E+00  0.00000000E+00  0.00000000E+00
  0.00000000E+00  0.00000000E+00  0.00000000E+00
  0.00000000E+00  0.00000000E+00  0.00000000E+00
  0.00000000E+00  0.00000000E+00  0.00000000E+00
  0.00000000E+00  0.00000000E+00  0.00000000E+00
  0.00000000E+00  0.00000000E+00  0.00000000E+00
  0.00000000E+00  0.00000000E+00  0.00000000E+00
  0.00000000E+00  0.00000000E+00  0.00000000E+00
  0.00000000E+00  0.00000000E+00  0.00000000E+00
  0.00000000E+00  0.00000000E+00  0.00000000E+00
  0.00000000E+00  0.00000000E+00  0.00000000E+00
  0.00000000E+00  0.00000000E+00  0.00000000E+00
  0.00000000E+00  0.00000000E+00  0.00000000E+00
  0.00000000E+00  0.00000000E+00  0.00000000E+00
  0.00000000E+00  0.00000000E+00  0.00000000E+00
  0.00000000E+00  0.00000000E+00  0.00000000E+00
  0.00000000E+00  0.00000000E+00  0.00000000E+00
  0.00000000E+00  0.00000000E+00  0.00000000E+00
  0.00000000E+00  0.00000000E+00  0.00000000E+00
  0.00000000E+00  0.00000000E+00  0.00000000E+00
  0.00000000E+00  0.00000000E+00  0.00000000E+00
  0.00000000E+00  0.00000000E+00  0.00000000E+00
  0.00000000E+00  0.00000000E+00  0.00000000E+00
  0.00000000E+00  0.00000000E+00  0.00000000E+00
  0.00000000E+00  0.00000000E+00  0.00000000E+00
  0.00000000E+00  0.00000000E+00  0.00000000E+00
  0.00000000E+00  0.00000000E+00  0.00000000E+00
  0.00000000E+00  0.00000000E+00  0.00000000E+00
  0.00000000E+00  0.00000000E+00  0.00000000E+00
  0.00000000E+00  0.00000000E+00  0.00000000E+00
  0.00000000E+00  0.00000000E+00  0.00000000E+00
  0.00000000E+00  0.00000000E+00  0.00000000E+00
  0.00000000E+00  0.00000000E+00  0.00000000E+00
  0.00000000E+00  0.00000000E+00  0.00000000E+00
  0.00000000E+00  0.00000000E+00  0.00000000E+00
  0.00000000E+00  0.00000000E+00  0.00000000E+00
  0.00000000E+00  0.00000000E+00  0.00000000E+00
  0.00000000E+00  0.00000000E+00  0.00000000E+00
  0.00000000E+00  0.00000000E+00  0.00000000E+00
  0.00000000E+00  0.00000000E+00  0.00000000E+00
  0.00000000E+00  0.00000000E+00  0.00000000E+00
  0.00000000E+00  0.00000000E+00  0.00000000E+00
  0.00000000E+00  0.00000000E+00  0.00000000E+00
  0.00000000E+00  0.00000000E+00  0.00000000E+00
  0.00000000E+00  0.00000000E+00  0.00000000E+00
  0.00000000E+00  0.00000000E+00  0.00000000E+00
  0.00000000E+00  0.00000000E+00  0.00000000E+00
  0.00000000E+00  0.00000000E+00  0.00000000E+00
