Sb2 Se3                                 
  0.99882000000000204     
    11.9454718211925162    0.0000000000000000    0.0000000000000000
     0.0000000000000000   11.9285311965989376    0.0000000000000000
     0.0000000000000000    0.0000000000000000   11.5287107052303703
   Sb   Se
    24    35
Direct
  0.5266701242122616  0.0833450008255333  0.1806921503460026
  0.5284635267232269  0.4190992773232869  0.1660449807931128
  0.5284448661807009  0.7475859852221008  0.1660452260656861
  0.4736665641065465  0.2502362094604085  0.8267108348537466
  0.4775433209848272  0.5833353490198953  0.8329387015803505
  0.4736724348514813  0.9164632479630970  0.8267261799912371
  0.9690120164820920  0.2506989944601291  0.6709440909780158
  0.9688700374891689  0.5833291807399473  0.6703890239788980
  0.9690088426803528  0.9159624309419467  0.6709350309200536
  0.0321734504409049  0.0833280104575564  0.3275012648061332
  0.0301173088391283  0.4171044682650293  0.3293519786555146
  0.0301201401635659  0.7495553042107767  0.3293387286519093
  0.6493903963148971  0.2514961903458770  0.4650854446290826
  0.6030695778570111  0.5832881122267206  0.4389475722197086
  0.6493744955513763  0.9151249970913192  0.4650978217829148
  0.3612182318929426  0.0833623077555107  0.5202227844506336
  0.3548050775929749  0.4184804227420165  0.5500381192317653
  0.3547797917498289  0.7482532645262774  0.5500357409666932
  0.8546466760839048  0.0833174801204159  0.9634574616118000
  0.8554562600667716  0.4168547138563505  0.9623208524570107
  0.8554697002760643  0.7497963004064148  0.9623257110401533
  0.1451922832195642  0.2505336006696419  0.0375033195298166
  0.1462729143947362  0.5833159062218728  0.0389494169888935
  0.1452043054836144  0.9161167182273002  0.0375035592640959
  0.6234829983519852  0.2517188177669485  0.0575754046566585
  0.6311280009613019  0.5833551228775481  0.0518302006157707
  0.6234917655736127  0.9149591412169144  0.0575943948031359
  0.3692489216440062  0.0833523422358340  0.9350825700927330
  0.3768102507083824  0.4163497200109462  0.9469863398428866
  0.3768161007017004  0.7503337550290964  0.9469781715344844
  0.8720829534490958  0.0833408743910046  0.5528840153132144
  0.8712598902513659  0.4160030778768928  0.5543619355678715
  0.8712695140343745  0.7506531083849902  0.5543459637630923
  0.1280860371811070  0.2506565919840499  0.4463300405831896
  0.1274890645979376  0.5833360114074970  0.4471310305078039
  0.1280981435027579  0.9159960788018205  0.4463183374933728
  0.7102958605901262  0.0833426954163424  0.3068601377564354
  0.7065528240091286  0.4227528361677483  0.3099470409849838
  0.7065245053977786  0.7438545048196451  0.3099728376070301
  0.2920837101693784  0.2553358868464710  0.6893481323084190
  0.2908075342630959  0.5833662805274277  0.7030289366338157
  0.2920983789494109  0.9114080022463710  0.6893593295212482
  0.7890697133017485  0.2493458706614400  0.8077186561090296
  0.7896199219577301  0.5833507503403474  0.8074613883572744
  0.7890763076823093  0.9172794080924409  0.8077091107054543
  0.2124754835738875  0.0833523310662096  0.1926758886179575
  0.2106031741027845  0.4172767742319194  0.1938396312526154
  0.2106142194047066  0.7493478086232683  0.1938300479554949
  0.4492778360961010  0.2506160744064913  0.3718794855804050
  0.4492689151410106  0.9160546797575904  0.3718910449371237
  0.5534640834549295  0.0833639239244877  0.6255567131859683
  0.5584200301898707  0.4200654858912923  0.6286705569858977
  0.5584098380462601  0.7465439850497646  0.6286363142062849
  0.0528456102101081  0.0833467123062623  0.8737253793419193
  0.0531023351525544  0.4161680246604429  0.8704952626129104
  0.0531225254849945  0.7504769386023894  0.8705038102929133
  0.9476723065026516  0.2500558233075068  0.1301908472503525
  0.9476810879899686  0.5833453909026567  0.1287457045589748
  0.9476918519264956  0.9165783637551592  0.1302005545221627

  0.00000000E+00  0.00000000E+00  0.00000000E+00
  0.00000000E+00  0.00000000E+00  0.00000000E+00
  0.00000000E+00  0.00000000E+00  0.00000000E+00
  0.00000000E+00  0.00000000E+00  0.00000000E+00
  0.00000000E+00  0.00000000E+00  0.00000000E+00
  0.00000000E+00  0.00000000E+00  0.00000000E+00
  0.00000000E+00  0.00000000E+00  0.00000000E+00
  0.00000000E+00  0.00000000E+00  0.00000000E+00
  0.00000000E+00  0.00000000E+00  0.00000000E+00
  0.00000000E+00  0.00000000E+00  0.00000000E+00
  0.00000000E+00  0.00000000E+00  0.00000000E+00
  0.00000000E+00  0.00000000E+00  0.00000000E+00
  0.00000000E+00  0.00000000E+00  0.00000000E+00
  0.00000000E+00  0.00000000E+00  0.00000000E+00
  0.00000000E+00  0.00000000E+00  0.00000000E+00
  0.00000000E+00  0.00000000E+00  0.00000000E+00
  0.00000000E+00  0.00000000E+00  0.00000000E+00
  0.00000000E+00  0.00000000E+00  0.00000000E+00
  0.00000000E+00  0.00000000E+00  0.00000000E+00
  0.00000000E+00  0.00000000E+00  0.00000000E+00
  0.00000000E+00  0.00000000E+00  0.00000000E+00
  0.00000000E+00  0.00000000E+00  0.00000000E+00
  0.00000000E+00  0.00000000E+00  0.00000000E+00
  0.00000000E+00  0.00000000E+00  0.00000000E+00
  0.00000000E+00  0.00000000E+00  0.00000000E+00
  0.00000000E+00  0.00000000E+00  0.00000000E+00
  0.00000000E+00  0.00000000E+00  0.00000000E+00
  0.00000000E+00  0.00000000E+00  0.00000000E+00
  0.00000000E+00  0.00000000E+00  0.00000000E+00
  0.00000000E+00  0.00000000E+00  0.00000000E+00
  0.00000000E+00  0.00000000E+00  0.00000000E+00
  0.00000000E+00  0.00000000E+00  0.00000000E+00
  0.00000000E+00  0.00000000E+00  0.00000000E+00
  0.00000000E+00  0.00000000E+00  0.00000000E+00
  0.00000000E+00  0.00000000E+00  0.00000000E+00
  0.00000000E+00  0.00000000E+00  0.00000000E+00
  0.00000000E+00  0.00000000E+00  0.00000000E+00
  0.00000000E+00  0.00000000E+00  0.00000000E+00
  0.00000000E+00  0.00000000E+00  0.00000000E+00
  0.00000000E+00  0.00000000E+00  0.00000000E+00
  0.00000000E+00  0.00000000E+00  0.00000000E+00
  0.00000000E+00  0.00000000E+00  0.00000000E+00
  0.00000000E+00  0.00000000E+00  0.00000000E+00
  0.00000000E+00  0.00000000E+00  0.00000000E+00
  0.00000000E+00  0.00000000E+00  0.00000000E+00
  0.00000000E+00  0.00000000E+00  0.00000000E+00
  0.00000000E+00  0.00000000E+00  0.00000000E+00
  0.00000000E+00  0.00000000E+00  0.00000000E+00
  0.00000000E+00  0.00000000E+00  0.00000000E+00
  0.00000000E+00  0.00000000E+00  0.00000000E+00
  0.00000000E+00  0.00000000E+00  0.00000000E+00
  0.00000000E+00  0.00000000E+00  0.00000000E+00
  0.00000000E+00  0.00000000E+00  0.00000000E+00
  0.00000000E+00  0.00000000E+00  0.00000000E+00
  0.00000000E+00  0.00000000E+00  0.00000000E+00
  0.00000000E+00  0.00000000E+00  0.00000000E+00
  0.00000000E+00  0.00000000E+00  0.00000000E+00
  0.00000000E+00  0.00000000E+00  0.00000000E+00
  0.00000000E+00  0.00000000E+00  0.00000000E+00
