Sb2 Se3                                 
   1.00000000000000     
    11.9313764572000007    0.0000000000000000    0.0000000000000000
     0.0000000000000000   11.9144554138000007    0.0000000000000000
     0.0000000000000000    0.0000000000000000   11.5151071548000008
   Sb   Se
    25    35
Direct
  0.5354697460827874  0.0839633375428247  0.1765900677888877
  0.5352464282163790  0.4151981100238282  0.1792905847344845
  0.5299459609484241  0.7505301013539123  0.1788274875296888
  0.4648248943021819  0.2501734616109902  0.8389935364443315
  0.4675647034166969  0.5826634081789047  0.8368650740852547
  0.4658391262942226  0.9181396902010724  0.8367457132114868
  0.9743833354918957  0.2501198692025239  0.6844273859344275
  0.9945805990444315  0.5822638469559651  0.6430144094535223
  0.9896711561377081  0.9177092842745584  0.6439743152732601
  0.9968287267845976  0.0701222015973352  0.2947726899321114
  0.0094490582630374  0.4087666069415646  0.3088259266083713
  0.0180169126915273  0.7424362415623743  0.3304380180074899
  0.6564315938693355  0.2492534953937004  0.4722098460756197
  0.6465774590806761  0.5847273028153871  0.4688701234037316
  0.6450948215468416  0.9148753530996641  0.4709833541710746
  0.3582886526561681  0.0826446829355692  0.5449402636014583
  0.3612499663619885  0.4187545867734467  0.5473774919013936
  0.3552037648644806  0.7503981463390708  0.5377371569644256
  0.8415988396202505  0.0786932569599468  0.9483375899461222
  0.8442568132676274  0.4272770279233962  0.9606186715592784
  0.8350606644807458  0.7469240634254227  0.9496232044508152
  0.1363468754520186  0.2507161038356540  0.0221742321648931
  0.1328641207158145  0.5948713324631097  0.0318897342788549
  0.1390653285198658  0.9031536053310768  0.0389484900868225
  0.2004518325621080  0.2627144996572668  0.3687736417060684
  0.6286901668168052  0.2500045888128696  0.0550203245296146
  0.6252865789809255  0.5849899508414129  0.0560426215786569
  0.6262740885102699  0.9150096954281259  0.0558649531711871
  0.3676022035872452  0.0834318429961241  0.9556134827720136
  0.3687110636083583  0.4172578555825550  0.9537328966231080
  0.3665413417211427  0.7510745703856291  0.9517087184454324
  0.8835132523939997  0.0887440552809264  0.5553189916282983
  0.8818093766751423  0.4139796354008092  0.5570445836673203
  0.8727529743024394  0.7479434642723239  0.5561554745062595
  0.1222135970803878  0.5775073111735403  0.4431223066924911
  0.1136247222780600  0.9141824790593164  0.4362282539162531
  0.7159297618745020  0.0818160334894253  0.3130575143137960
  0.7159028017357348  0.4176796477351563  0.3130319163734034
  0.7100350683922529  0.7498715264443887  0.3120235316307001
  0.2864734426300747  0.2500536677190216  0.6957905559470734
  0.2890648995589212  0.5823899492085060  0.6950604151616310
  0.2876957542846034  0.9185732210726213  0.6939393927977558
  0.7889624861093631  0.2506585057165593  0.8033926749576301
  0.7967315481631657  0.5856244604856632  0.7999089745284623
  0.7969111984641329  0.9155296662576973  0.7957354476046904
  0.2038402089660014  0.0973161982285998  0.2152468115313439
  0.2115669445402048  0.4151543707786592  0.2053732923812477
  0.2030501300495763  0.7463739337887108  0.1978740217603587
  0.4611237687041079  0.2502079080586925  0.3763073379183099
  0.4488245750370568  0.5819041928402441  0.3762059142281383
  0.4486975541736065  0.9175548161485022  0.3755401556588587
  0.5564882295931595  0.0843851959191558  0.6343607168459849
  0.5587898911166326  0.4157856130546815  0.6376961977749354
  0.5516252832391775  0.7502975529991737  0.6335516955186026
  0.0515598633347313  0.0827173012262421  0.8785254154012591
  0.0498776139841813  0.4175641900115618  0.8772726284250327
  0.0559497201670850  0.7552415208662318  0.8857579443607243
  0.9433175516373735  0.2508123623692416  0.1303944991215934
  0.9354998669449623  0.5863615403373974  0.1250176491879336
  0.9407510636727863  0.9149114896116988  0.1378336557260079
 
  0.00000000E+00  0.00000000E+00  0.00000000E+00
  0.00000000E+00  0.00000000E+00  0.00000000E+00
  0.00000000E+00  0.00000000E+00  0.00000000E+00
  0.00000000E+00  0.00000000E+00  0.00000000E+00
  0.00000000E+00  0.00000000E+00  0.00000000E+00
  0.00000000E+00  0.00000000E+00  0.00000000E+00
  0.00000000E+00  0.00000000E+00  0.00000000E+00
  0.00000000E+00  0.00000000E+00  0.00000000E+00
  0.00000000E+00  0.00000000E+00  0.00000000E+00
  0.00000000E+00  0.00000000E+00  0.00000000E+00
  0.00000000E+00  0.00000000E+00  0.00000000E+00
  0.00000000E+00  0.00000000E+00  0.00000000E+00
  0.00000000E+00  0.00000000E+00  0.00000000E+00
  0.00000000E+00  0.00000000E+00  0.00000000E+00
  0.00000000E+00  0.00000000E+00  0.00000000E+00
  0.00000000E+00  0.00000000E+00  0.00000000E+00
  0.00000000E+00  0.00000000E+00  0.00000000E+00
  0.00000000E+00  0.00000000E+00  0.00000000E+00
  0.00000000E+00  0.00000000E+00  0.00000000E+00
  0.00000000E+00  0.00000000E+00  0.00000000E+00
  0.00000000E+00  0.00000000E+00  0.00000000E+00
  0.00000000E+00  0.00000000E+00  0.00000000E+00
  0.00000000E+00  0.00000000E+00  0.00000000E+00
  0.00000000E+00  0.00000000E+00  0.00000000E+00
  0.00000000E+00  0.00000000E+00  0.00000000E+00
  0.00000000E+00  0.00000000E+00  0.00000000E+00
  0.00000000E+00  0.00000000E+00  0.00000000E+00
  0.00000000E+00  0.00000000E+00  0.00000000E+00
  0.00000000E+00  0.00000000E+00  0.00000000E+00
  0.00000000E+00  0.00000000E+00  0.00000000E+00
  0.00000000E+00  0.00000000E+00  0.00000000E+00
  0.00000000E+00  0.00000000E+00  0.00000000E+00
  0.00000000E+00  0.00000000E+00  0.00000000E+00
  0.00000000E+00  0.00000000E+00  0.00000000E+00
  0.00000000E+00  0.00000000E+00  0.00000000E+00
  0.00000000E+00  0.00000000E+00  0.00000000E+00
  0.00000000E+00  0.00000000E+00  0.00000000E+00
  0.00000000E+00  0.00000000E+00  0.00000000E+00
  0.00000000E+00  0.00000000E+00  0.00000000E+00
  0.00000000E+00  0.00000000E+00  0.00000000E+00
  0.00000000E+00  0.00000000E+00  0.00000000E+00
  0.00000000E+00  0.00000000E+00  0.00000000E+00
  0.00000000E+00  0.00000000E+00  0.00000000E+00
  0.00000000E+00  0.00000000E+00  0.00000000E+00
  0.00000000E+00  0.00000000E+00  0.00000000E+00
  0.00000000E+00  0.00000000E+00  0.00000000E+00
  0.00000000E+00  0.00000000E+00  0.00000000E+00
  0.00000000E+00  0.00000000E+00  0.00000000E+00
  0.00000000E+00  0.00000000E+00  0.00000000E+00
  0.00000000E+00  0.00000000E+00  0.00000000E+00
  0.00000000E+00  0.00000000E+00  0.00000000E+00
  0.00000000E+00  0.00000000E+00  0.00000000E+00
  0.00000000E+00  0.00000000E+00  0.00000000E+00
  0.00000000E+00  0.00000000E+00  0.00000000E+00
  0.00000000E+00  0.00000000E+00  0.00000000E+00
  0.00000000E+00  0.00000000E+00  0.00000000E+00
  0.00000000E+00  0.00000000E+00  0.00000000E+00
  0.00000000E+00  0.00000000E+00  0.00000000E+00
  0.00000000E+00  0.00000000E+00  0.00000000E+00
  0.00000000E+00  0.00000000E+00  0.00000000E+00
