Sb2 Se3                                 
   1.00000000000000     
    11.9313764572000007    0.0000000000000000    0.0000000000000000
     0.0000000000000000   11.9144554138000007    0.0000000000000000
     0.0000000000000000    0.0000000000000000   11.5151071548000008
   Sb   Se
    25    35
Direct
  0.5357160248837358  0.0830866302804421  0.1693618915997104
  0.5357160925355289  0.4169134646871332  0.1693618266066420
  0.5351271449300693  0.7499998944030477  0.1696809725491692
  0.4700512552884165  0.2500000098561576  0.8320258768619502
  0.4647871006722130  0.5833048881454868  0.8298293621953892
  0.4647869954612649  0.9166949520772305  0.8298293590581092
  0.9672801343315977  0.2500001837990056  0.6666773403317532
  0.9636872568304100  0.5847850888657419  0.6712074160127962
  0.9636873148128078  0.9152148066735659  0.6712073679810462
  0.0280406415178760  0.0770120273250730  0.3323219841419432
  0.0280406556837586  0.4229880675074111  0.3323217652239825
  0.0322605858571245  0.7499999417420812  0.3303805717932767
  0.6454429900309173  0.2500001267827651  0.4635942922241270
  0.6441588692662084  0.5833380017705859  0.4624672360009137
  0.6441587248570483  0.9166619187304230  0.4624672257441991
  0.3588671207646976  0.0838706820148559  0.5387405085419495
  0.3588672043608690  0.4161294530139044  0.5387406022697965
  0.3557664991042919  0.7499999193537656  0.5389049605264814
  0.8563380109325330  0.0841294852753706  0.9589303322857562
  0.8563379142179163  0.4158707036648724  0.9589302028274670
  0.8560944284864993  0.7499998265166016  0.9637512187042315
  0.1427890453045036  0.2500000960032666  0.0400381671061365
  0.1425731214719550  0.5833600559831436  0.0370006359734521
  0.1425731377856911  0.9166400922613770  0.0370007087049639
  0.1444931935113332  0.2500000687541272  0.4553315306907365
  0.6342601673299816  0.2500000758118742  0.0533789971939498
  0.6332349350435855  0.5832264209184028  0.0538845545763580
  0.6332348551135691  0.9167734191754798  0.0538847253333152
  0.3696679010913970  0.0838738406434271  0.9472397355898328
  0.3696679744524093  0.4161261994628340  0.9472397877642937
  0.3683866698291649  0.7499997797347975  0.9475438806889800
  0.8676430308657417  0.0832792096559981  0.5534211737126241
  0.8676428411297464  0.4167210325554303  0.5534211759592179
  0.8662815432237756  0.7499998407729971  0.5524718560429892
  0.1316644365940713  0.5867668549908979  0.4456513903971957
  0.1316644017023778  0.9132331584337579  0.4456512761963704
  0.7110927526631204  0.0839836764165283  0.3101006360714762
  0.7110928306629274  0.4160164107708803  0.3101004545838679
  0.7109213419910929  0.7499998804401891  0.3094711951694671
  0.2929833969382029  0.2499999811080860  0.6932113732245724
  0.2884497714782828  0.5837047170025894  0.6912571907547159
  0.2884497153897846  0.9162952248635795  0.6912571803928044
  0.7886066001833183  0.2500001031643149  0.8076877596051646
  0.7875379487275828  0.5832252656154878  0.8079661005590897
  0.7875381583295217  0.9167746527340576  0.8079661442186514
  0.2072514267474249  0.0827220206257795  0.1929455308219591
  0.2072513504432032  0.4172782600093042  0.1929454758530797
  0.2086879372337765  0.7499999100418584  0.1881279657516905
  0.4452821812271552  0.2500000719390514  0.3711864551832986
  0.4457657034457529  0.5827129904572629  0.3688222946225457
  0.4457656757662589  0.9172867769811330  0.3688221736836627
  0.5571616437075535  0.0828106358054068  0.6338989351856118
  0.5571618412048756  0.4171895190152949  0.6338989523963210
  0.5540572215423589  0.7499998140472971  0.6315161341581647
  0.0544767798952500  0.0844632908901067  0.8633808893036220
  0.0544767191589198  0.4155367834510624  0.8633807550408097
  0.0534568791947039  0.7499998093633625  0.8650558140152511
  0.9440499364737406  0.2500001613279290  0.1299787187781283
  0.9437459323189650  0.5854265161924191  0.1265648696783421
  0.9437460090011274  0.9145732400937027  0.1265650675365885
 
  0.00000000E+00  0.00000000E+00  0.00000000E+00
  0.00000000E+00  0.00000000E+00  0.00000000E+00
  0.00000000E+00  0.00000000E+00  0.00000000E+00
  0.00000000E+00  0.00000000E+00  0.00000000E+00
  0.00000000E+00  0.00000000E+00  0.00000000E+00
  0.00000000E+00  0.00000000E+00  0.00000000E+00
  0.00000000E+00  0.00000000E+00  0.00000000E+00
  0.00000000E+00  0.00000000E+00  0.00000000E+00
  0.00000000E+00  0.00000000E+00  0.00000000E+00
  0.00000000E+00  0.00000000E+00  0.00000000E+00
  0.00000000E+00  0.00000000E+00  0.00000000E+00
  0.00000000E+00  0.00000000E+00  0.00000000E+00
  0.00000000E+00  0.00000000E+00  0.00000000E+00
  0.00000000E+00  0.00000000E+00  0.00000000E+00
  0.00000000E+00  0.00000000E+00  0.00000000E+00
  0.00000000E+00  0.00000000E+00  0.00000000E+00
  0.00000000E+00  0.00000000E+00  0.00000000E+00
  0.00000000E+00  0.00000000E+00  0.00000000E+00
  0.00000000E+00  0.00000000E+00  0.00000000E+00
  0.00000000E+00  0.00000000E+00  0.00000000E+00
  0.00000000E+00  0.00000000E+00  0.00000000E+00
  0.00000000E+00  0.00000000E+00  0.00000000E+00
  0.00000000E+00  0.00000000E+00  0.00000000E+00
  0.00000000E+00  0.00000000E+00  0.00000000E+00
  0.00000000E+00  0.00000000E+00  0.00000000E+00
  0.00000000E+00  0.00000000E+00  0.00000000E+00
  0.00000000E+00  0.00000000E+00  0.00000000E+00
  0.00000000E+00  0.00000000E+00  0.00000000E+00
  0.00000000E+00  0.00000000E+00  0.00000000E+00
  0.00000000E+00  0.00000000E+00  0.00000000E+00
  0.00000000E+00  0.00000000E+00  0.00000000E+00
  0.00000000E+00  0.00000000E+00  0.00000000E+00
  0.00000000E+00  0.00000000E+00  0.00000000E+00
  0.00000000E+00  0.00000000E+00  0.00000000E+00
  0.00000000E+00  0.00000000E+00  0.00000000E+00
  0.00000000E+00  0.00000000E+00  0.00000000E+00
  0.00000000E+00  0.00000000E+00  0.00000000E+00
  0.00000000E+00  0.00000000E+00  0.00000000E+00
  0.00000000E+00  0.00000000E+00  0.00000000E+00
  0.00000000E+00  0.00000000E+00  0.00000000E+00
  0.00000000E+00  0.00000000E+00  0.00000000E+00
  0.00000000E+00  0.00000000E+00  0.00000000E+00
  0.00000000E+00  0.00000000E+00  0.00000000E+00
  0.00000000E+00  0.00000000E+00  0.00000000E+00
  0.00000000E+00  0.00000000E+00  0.00000000E+00
  0.00000000E+00  0.00000000E+00  0.00000000E+00
  0.00000000E+00  0.00000000E+00  0.00000000E+00
  0.00000000E+00  0.00000000E+00  0.00000000E+00
  0.00000000E+00  0.00000000E+00  0.00000000E+00
  0.00000000E+00  0.00000000E+00  0.00000000E+00
  0.00000000E+00  0.00000000E+00  0.00000000E+00
  0.00000000E+00  0.00000000E+00  0.00000000E+00
  0.00000000E+00  0.00000000E+00  0.00000000E+00
  0.00000000E+00  0.00000000E+00  0.00000000E+00
  0.00000000E+00  0.00000000E+00  0.00000000E+00
  0.00000000E+00  0.00000000E+00  0.00000000E+00
  0.00000000E+00  0.00000000E+00  0.00000000E+00
  0.00000000E+00  0.00000000E+00  0.00000000E+00
  0.00000000E+00  0.00000000E+00  0.00000000E+00
  0.00000000E+00  0.00000000E+00  0.00000000E+00
