Sb2 Se3                                 
   1.00000000000000     
    11.9313764572000007    0.0000000000000000    0.0000000000000000
     0.0000000000000000   11.9144554138000007    0.0000000000000000
     0.0000000000000000    0.0000000000000000   11.5151071548000008
   Sb   Se
    25    35
Direct
  0.5276616601013379  0.0822945688038995  0.1753246436565921
  0.5276616322420273  0.4177054419315781  0.1753246766724751
  0.5290905110974641  0.7499999829222717  0.1736174066805377
  0.4797923622052193  0.2499999892824100  0.8325947395528458
  0.4712505392634848  0.5834269737402930  0.8291733787738850
  0.4712505511981470  0.9165730049365518  0.8291734614216074
  0.9830100893578791  0.2500000159152879  0.6536759114919131
  0.9668101127296940  0.5842440327387856  0.6741556039135691
  0.9668100972065113  0.9157559833381353  0.6741556147497636
  0.0269907249545843  0.0778798892338575  0.3290735930023552
  0.0269907781146335  0.4221201286034434  0.3290735957183760
  0.0325317103143042  0.7499999989809457  0.3250770042525758
  0.6477380660191350  0.2499999899310324  0.4674654187216058
  0.6466471404117843  0.5833639663674417  0.4644843339636829
  0.6466471460304429  0.9166359176973312  0.4644843346430977
  0.3557089412800557  0.0852195034285513  0.5401082153425848
  0.3557089847070257  0.4147804830699249  0.5401081169072798
  0.3530816694641204  0.7499999621580372  0.5400960589362291
  0.8491385626365975  0.0886742998746100  0.9544727150982343
  0.8491385680931043  0.4113257800956270  0.9544727144511352
  0.8559551179996973  0.7499999929443741  0.9674158303070405
  0.1414250514093340  0.2500000133647169  0.0342116294582165
  0.1445326284856347  0.5814351460732029  0.0329825699519315
  0.1445325948223269  0.9185648463050100  0.0329825686289888
  0.1413516828090091  0.2500000061922874  0.4531420551914577
  0.6259419157219893  0.2499999840319628  0.0608415563991477
  0.6274600142321123  0.5829184176372770  0.0577535069421533
  0.6274600661192741  0.9170815718121363  0.0577534802865736
  0.3755725446244726  0.0839445644961081  0.9465446641661638
  0.3755725690257473  0.4160554757466001  0.9465446726105348
  0.3740647592662138  0.7499999699713265  0.9467315177467880
  0.8722765202165755  0.0838841601796031  0.5515108297940516
  0.8722764871909169  0.4161159180201234  0.5515108216663905
  0.8714833589904631  0.7499999911841148  0.5536750812873399
  0.1289066692123915  0.5856030756722279  0.4445913598444985
  0.1289066921967278  0.9143969519676921  0.4445913692657807
  0.7091355410509844  0.0832446062924300  0.3090837372735544
  0.7091355829333116  0.4167553584111697  0.3090837627910587
  0.7102388175979019  0.7499999693044966  0.3080007103685314
  0.2964252200581561  0.2500000000696453  0.6983020540424729
  0.2897148477381630  0.5831761604047140  0.6958601385285184
  0.2897148555843215  0.9168237933015131  0.6958601779419673
  0.7820864575101224  0.2500000372813741  0.8059757667055456
  0.7860569288688475  0.5816258680956928  0.8047571966802077
  0.7860569313079272  0.9183741260525358  0.8047572238247019
  0.2069733446200686  0.0816119659252459  0.1895799757340186
  0.2069733923240733  0.4183880536602487  0.1895799941013141
  0.2110225224318252  0.7499999516700281  0.1890070371554847
  0.4474174450432675  0.2500000376919924  0.3763502807543723
  0.4474988371233533  0.5837372981703874  0.3740292425980913
  0.4474988803091907  0.9162626053714682  0.3740292512962127
  0.5559367675678804  0.0833829329292520  0.6319513859130365
  0.5559368288851787  0.4166170765358995  0.6319513426620369
  0.5520307580408759  0.7499999785510340  0.6308612142329603
  0.0512413654746950  0.0838837488300678  0.8687045047948815
  0.0512414078874314  0.4161163113546388  0.8687044719808280
  0.0486544627240489  0.7500000265816296  0.8625829672279982
  0.9448218462511130  0.2500000352915610  0.1269341687587681
  0.9464042104812747  0.5868366188133654  0.1225791952021752
  0.9464042014355356  0.9131633707608399  0.1225791239338583
 
  0.00000000E+00  0.00000000E+00  0.00000000E+00
  0.00000000E+00  0.00000000E+00  0.00000000E+00
  0.00000000E+00  0.00000000E+00  0.00000000E+00
  0.00000000E+00  0.00000000E+00  0.00000000E+00
  0.00000000E+00  0.00000000E+00  0.00000000E+00
  0.00000000E+00  0.00000000E+00  0.00000000E+00
  0.00000000E+00  0.00000000E+00  0.00000000E+00
  0.00000000E+00  0.00000000E+00  0.00000000E+00
  0.00000000E+00  0.00000000E+00  0.00000000E+00
  0.00000000E+00  0.00000000E+00  0.00000000E+00
  0.00000000E+00  0.00000000E+00  0.00000000E+00
  0.00000000E+00  0.00000000E+00  0.00000000E+00
  0.00000000E+00  0.00000000E+00  0.00000000E+00
  0.00000000E+00  0.00000000E+00  0.00000000E+00
  0.00000000E+00  0.00000000E+00  0.00000000E+00
  0.00000000E+00  0.00000000E+00  0.00000000E+00
  0.00000000E+00  0.00000000E+00  0.00000000E+00
  0.00000000E+00  0.00000000E+00  0.00000000E+00
  0.00000000E+00  0.00000000E+00  0.00000000E+00
  0.00000000E+00  0.00000000E+00  0.00000000E+00
  0.00000000E+00  0.00000000E+00  0.00000000E+00
  0.00000000E+00  0.00000000E+00  0.00000000E+00
  0.00000000E+00  0.00000000E+00  0.00000000E+00
  0.00000000E+00  0.00000000E+00  0.00000000E+00
  0.00000000E+00  0.00000000E+00  0.00000000E+00
  0.00000000E+00  0.00000000E+00  0.00000000E+00
  0.00000000E+00  0.00000000E+00  0.00000000E+00
  0.00000000E+00  0.00000000E+00  0.00000000E+00
  0.00000000E+00  0.00000000E+00  0.00000000E+00
  0.00000000E+00  0.00000000E+00  0.00000000E+00
  0.00000000E+00  0.00000000E+00  0.00000000E+00
  0.00000000E+00  0.00000000E+00  0.00000000E+00
  0.00000000E+00  0.00000000E+00  0.00000000E+00
  0.00000000E+00  0.00000000E+00  0.00000000E+00
  0.00000000E+00  0.00000000E+00  0.00000000E+00
  0.00000000E+00  0.00000000E+00  0.00000000E+00
  0.00000000E+00  0.00000000E+00  0.00000000E+00
  0.00000000E+00  0.00000000E+00  0.00000000E+00
  0.00000000E+00  0.00000000E+00  0.00000000E+00
  0.00000000E+00  0.00000000E+00  0.00000000E+00
  0.00000000E+00  0.00000000E+00  0.00000000E+00
  0.00000000E+00  0.00000000E+00  0.00000000E+00
  0.00000000E+00  0.00000000E+00  0.00000000E+00
  0.00000000E+00  0.00000000E+00  0.00000000E+00
  0.00000000E+00  0.00000000E+00  0.00000000E+00
  0.00000000E+00  0.00000000E+00  0.00000000E+00
  0.00000000E+00  0.00000000E+00  0.00000000E+00
  0.00000000E+00  0.00000000E+00  0.00000000E+00
  0.00000000E+00  0.00000000E+00  0.00000000E+00
  0.00000000E+00  0.00000000E+00  0.00000000E+00
  0.00000000E+00  0.00000000E+00  0.00000000E+00
  0.00000000E+00  0.00000000E+00  0.00000000E+00
  0.00000000E+00  0.00000000E+00  0.00000000E+00
  0.00000000E+00  0.00000000E+00  0.00000000E+00
  0.00000000E+00  0.00000000E+00  0.00000000E+00
  0.00000000E+00  0.00000000E+00  0.00000000E+00
  0.00000000E+00  0.00000000E+00  0.00000000E+00
  0.00000000E+00  0.00000000E+00  0.00000000E+00
  0.00000000E+00  0.00000000E+00  0.00000000E+00
  0.00000000E+00  0.00000000E+00  0.00000000E+00
