Sb2 Se3                                 
   1.00000000000000     
    11.9313764572000007    0.0000000000000000    0.0000000000000000
     0.0000000000000000   11.9144554138000007    0.0000000000000000
     0.0000000000000000    0.0000000000000000   11.5151071548000008
   Sb   Se
    25    35
Direct
  0.5326433209738279  0.0826729493445749  0.1710528509218855
  0.5277484946657712  0.4153336388015280  0.1718358479415089
  0.5296773710595982  0.7496074064329031  0.1718487191346341
  0.4687948526495337  0.2505922144420559  0.8318299448802199
  0.4685181339707108  0.5819085603646942  0.8299382966908441
  0.4708982888068576  0.9158791331492314  0.8269736006753021
  0.9795986798964140  0.2454841716052213  0.6967103920130835
  0.9711725405696635  0.5868540040162439  0.6782309577677118
  0.9722090736514818  0.9178492713970018  0.6648535214523900
  0.0221252963752972  0.0843724468446646  0.3250081265249022
  0.9893950643659105  0.4372071071557717  0.3653136395952788
  0.0218247392010333  0.7566656932286024  0.3358799733137525
  0.6503510925190407  0.2487157028174278  0.4649930028946013
  0.6461349538667435  0.5828803868489361  0.4613461350077260
  0.6485587710253959  0.9151194263724498  0.4621598000468109
  0.3591457959962761  0.0826119884106107  0.5372226281813236
  0.3606276728733727  0.4172092700035233  0.5404184755729070
  0.3562309262449896  0.7509673925045592  0.5369183356936286
  0.8531466147856105  0.0809475296082894  0.9620474592013468
  0.8523920306708102  0.4169691470219351  0.9639540598757149
  0.8479256162606703  0.7494374614662840  0.9637170106088006
  0.1493772378026278  0.2457937954649151  0.0489600200604387
  0.1338554867324243  0.5952712143380762  0.0289580515805812
  0.1487048800281436  0.9138202585843020  0.0397221996048984
  0.1543397860074378  0.2734225394237176  0.4116904798969818
  0.6273200901942194  0.2496215655087069  0.0520667771080912
  0.6257828934506684  0.5826706493799074  0.0535795267233991
  0.6280211336320953  0.9157029298818457  0.0520836946226525
  0.3721338019086984  0.0819070227108887  0.9444501853542944
  0.3693627375501484  0.4163262107477484  0.9479159744462670
  0.3711578008986076  0.7497077960173602  0.9450674990855086
  0.8856994812122047  0.0870664197304198  0.5508239116269407
  0.8714657344109793  0.4202241195506931  0.5617341558808249
  0.8728953534850175  0.7500399912502101  0.5494560007986276
  0.1268867710223648  0.5922382314360389  0.4419692465872981
  0.1296220732848806  0.9202051037498549  0.4404227777663318
  0.7129007747819884  0.0825873519851927  0.3066310903424039
  0.7098949506677177  0.4149780215637039  0.3059686761918126
  0.7109676267136587  0.7499833655529203  0.3048320877424708
  0.2898663930902276  0.2503542600806193  0.6911730860754236
  0.2893521798575285  0.5828806895617227  0.6921025397318524
  0.2903754494919139  0.9165987143791434  0.6913877033529254
  0.7894542715651172  0.2501003461960247  0.8022970885541209
  0.7879328442023896  0.5834391855447314  0.8044387075992274
  0.7933071746786272  0.9127282508206302  0.8012755029746949
  0.2091471079792479  0.0749256958025176  0.1913951681865024
  0.2167562064157758  0.3789680582040042  0.2209917314502249
  0.2040050046986509  0.7510696280079259  0.1898386277971012
  0.4532870586356182  0.2489991272513624  0.3723918345162723
  0.4482238711622867  0.5829653241019085  0.3681241413744590
  0.4494526624398755  0.9163907322507587  0.3712227411713154
  0.5562186101116278  0.0828700136608682  0.6306463746543269
  0.5591096651462228  0.4164406641251696  0.6312925776713821
  0.5538396707840954  0.7489155081953605  0.6285555107164461
  0.0491331748121008  0.0842317287701603  0.8601349218453274
  0.0489934371242963  0.4161599216388173  0.8661602688904650
  0.0537548935860324  0.7437926189187946  0.8738149544186911
  0.9443823673244806  0.2468594926250702  0.1238019856147899
  0.9393276665801696  0.5838522627918483  0.1225666284812750
  0.9445723191007745  0.9166062183595610  0.1178027475090012
 
  0.00000000E+00  0.00000000E+00  0.00000000E+00
  0.00000000E+00  0.00000000E+00  0.00000000E+00
  0.00000000E+00  0.00000000E+00  0.00000000E+00
  0.00000000E+00  0.00000000E+00  0.00000000E+00
  0.00000000E+00  0.00000000E+00  0.00000000E+00
  0.00000000E+00  0.00000000E+00  0.00000000E+00
  0.00000000E+00  0.00000000E+00  0.00000000E+00
  0.00000000E+00  0.00000000E+00  0.00000000E+00
  0.00000000E+00  0.00000000E+00  0.00000000E+00
  0.00000000E+00  0.00000000E+00  0.00000000E+00
  0.00000000E+00  0.00000000E+00  0.00000000E+00
  0.00000000E+00  0.00000000E+00  0.00000000E+00
  0.00000000E+00  0.00000000E+00  0.00000000E+00
  0.00000000E+00  0.00000000E+00  0.00000000E+00
  0.00000000E+00  0.00000000E+00  0.00000000E+00
  0.00000000E+00  0.00000000E+00  0.00000000E+00
  0.00000000E+00  0.00000000E+00  0.00000000E+00
  0.00000000E+00  0.00000000E+00  0.00000000E+00
  0.00000000E+00  0.00000000E+00  0.00000000E+00
  0.00000000E+00  0.00000000E+00  0.00000000E+00
  0.00000000E+00  0.00000000E+00  0.00000000E+00
  0.00000000E+00  0.00000000E+00  0.00000000E+00
  0.00000000E+00  0.00000000E+00  0.00000000E+00
  0.00000000E+00  0.00000000E+00  0.00000000E+00
  0.00000000E+00  0.00000000E+00  0.00000000E+00
  0.00000000E+00  0.00000000E+00  0.00000000E+00
  0.00000000E+00  0.00000000E+00  0.00000000E+00
  0.00000000E+00  0.00000000E+00  0.00000000E+00
  0.00000000E+00  0.00000000E+00  0.00000000E+00
  0.00000000E+00  0.00000000E+00  0.00000000E+00
  0.00000000E+00  0.00000000E+00  0.00000000E+00
  0.00000000E+00  0.00000000E+00  0.00000000E+00
  0.00000000E+00  0.00000000E+00  0.00000000E+00
  0.00000000E+00  0.00000000E+00  0.00000000E+00
  0.00000000E+00  0.00000000E+00  0.00000000E+00
  0.00000000E+00  0.00000000E+00  0.00000000E+00
  0.00000000E+00  0.00000000E+00  0.00000000E+00
  0.00000000E+00  0.00000000E+00  0.00000000E+00
  0.00000000E+00  0.00000000E+00  0.00000000E+00
  0.00000000E+00  0.00000000E+00  0.00000000E+00
  0.00000000E+00  0.00000000E+00  0.00000000E+00
  0.00000000E+00  0.00000000E+00  0.00000000E+00
  0.00000000E+00  0.00000000E+00  0.00000000E+00
  0.00000000E+00  0.00000000E+00  0.00000000E+00
  0.00000000E+00  0.00000000E+00  0.00000000E+00
  0.00000000E+00  0.00000000E+00  0.00000000E+00
  0.00000000E+00  0.00000000E+00  0.00000000E+00
  0.00000000E+00  0.00000000E+00  0.00000000E+00
  0.00000000E+00  0.00000000E+00  0.00000000E+00
  0.00000000E+00  0.00000000E+00  0.00000000E+00
  0.00000000E+00  0.00000000E+00  0.00000000E+00
  0.00000000E+00  0.00000000E+00  0.00000000E+00
  0.00000000E+00  0.00000000E+00  0.00000000E+00
  0.00000000E+00  0.00000000E+00  0.00000000E+00
  0.00000000E+00  0.00000000E+00  0.00000000E+00
  0.00000000E+00  0.00000000E+00  0.00000000E+00
  0.00000000E+00  0.00000000E+00  0.00000000E+00
  0.00000000E+00  0.00000000E+00  0.00000000E+00
  0.00000000E+00  0.00000000E+00  0.00000000E+00
  0.00000000E+00  0.00000000E+00  0.00000000E+00
