Sb2 Se3                                 
   1.00000000000000     
    11.9313764572000007    0.0000000000000000    0.0000000000000000
     0.0000000000000000   11.9144554138000007    0.0000000000000000
     0.0000000000000000    0.0000000000000000   11.5151071548000008
   Sb   Se
    25    35
Direct
  0.5330064688112063  0.0813748089414804  0.1716410276704593
  0.5261627254534038  0.4137857439041980  0.1714088214271043
  0.5288452381638239  0.7484002635844826  0.1713470303276716
  0.4689635421396536  0.2491992509527496  0.8323412133701082
  0.4687959614879336  0.5804275790305031  0.8308821095870127
  0.4713483633501666  0.9142951020118246  0.8271874688251802
  0.9794487212141673  0.2444579943527699  0.6967517562829065
  0.9706187537309438  0.5900298506460742  0.6784644048038027
  0.9722792514495522  0.9189504537205057  0.6629567786902810
  0.0297206890563800  0.0837726852449274  0.3178145668621793
 -0.0171829429631882  0.4436648204337658  0.3670511499014264
  0.0234461287390385  0.7579588648706305  0.3315175615622815
  0.6497490151299045  0.2459008509570300  0.4639418082319535
  0.6435879406561963  0.5802413125254943  0.4615797957308377
  0.6476437801154702  0.9122232074405884  0.4633285526858263
  0.3585227874203740  0.0798446856078735  0.5383911031338244
  0.3593044930558048  0.4146896614267983  0.5426480781916504
  0.3556248076138236  0.7493530487663008  0.5373037708161739
  0.8536471592310675  0.0829839535731270  0.9629102288057637
  0.8529165162697867  0.4171328212742020  0.9666231913836120
  0.8474099309475023  0.7498435515493371  0.9614252994899647
  0.1498485156062422  0.2478417166971416  0.0428088166512854
  0.1342341557244011  0.5941538901118130  0.0288277937818958
  0.1503739009245280  0.9136966386237994  0.0397530446234534
  0.1544286326903762  0.2841227978921799  0.4034195795888391
  0.6271985943680848  0.2483333565540841  0.0523853857410033
  0.6251583715503574  0.5817682019892713  0.0536928961826169
  0.6278798722844534  0.9137920365750141  0.0524953294390965
  0.3728990989110588  0.0804417577201687  0.9449947872022688
  0.3699155676701925  0.4149951819660671  0.9492449440940718
  0.3705611968584882  0.7483691381314669  0.9449290005087945
  0.8877714809944945  0.0893197817907823  0.5494159235169508
  0.8705283489029029  0.4215349392654242  0.5645067313762411
  0.8721784982069207  0.7515982367586619  0.5492755126969386
  0.1247348498601065  0.5937777538106135  0.4424830250499433
  0.1290040169490969  0.9213258917327004  0.4396740299073608
  0.7132403860915622  0.0802446125434987  0.3073530298904139
  0.7089193549120768  0.4134506389957276  0.3060839413342292
  0.7092987922518170  0.7477926678019503  0.3058337496577646
  0.2889047088888301  0.2491515059279985  0.6926242848592244
  0.2885946872135316  0.5800411581685502  0.6925689517460633
  0.2897993686915851  0.9151244347882791  0.6922740677387952
  0.7897667433139699  0.2506347400512679  0.8040868053290479
  0.7872530794206071  0.5853170499384919  0.8063474157367114
  0.7939923207567792  0.9140813266117718  0.8019550790274603
  0.2145198040188147  0.0776701901202203  0.1881896739897305
  0.2198342612900264  0.3841497239061399  0.2141983199410005
  0.2060580922995737  0.7513683630874812  0.1902053878278974
  0.4524620705609507  0.2476760781293739  0.3717762904411171
  0.4450012349023930  0.5799956598995794  0.3693388689343290
  0.4481440757826153  0.9147541283862514  0.3728487759702694
  0.5555028194081553  0.0816093754010713  0.6315684994746593
  0.5581125200275634  0.4146938956945919  0.6322861382581508
  0.5530844380203410  0.7470384579902762  0.6295083356554072
  0.0501744007136588  0.0848154722322926  0.8612878978908839
  0.0492809073038992  0.4182136771596370  0.8680748791054295
  0.0538882853196611  0.7454364009333501  0.8752308406960226
  0.9460219028265980  0.2480690492898256  0.1227920118837046
  0.9400118590298493  0.5844608981070963  0.1245808531944049
  0.9475594273803986  0.9206085944014630  0.1235633592765133
 
  0.00000000E+00  0.00000000E+00  0.00000000E+00
  0.00000000E+00  0.00000000E+00  0.00000000E+00
  0.00000000E+00  0.00000000E+00  0.00000000E+00
  0.00000000E+00  0.00000000E+00  0.00000000E+00
  0.00000000E+00  0.00000000E+00  0.00000000E+00
  0.00000000E+00  0.00000000E+00  0.00000000E+00
  0.00000000E+00  0.00000000E+00  0.00000000E+00
  0.00000000E+00  0.00000000E+00  0.00000000E+00
  0.00000000E+00  0.00000000E+00  0.00000000E+00
  0.00000000E+00  0.00000000E+00  0.00000000E+00
  0.00000000E+00  0.00000000E+00  0.00000000E+00
  0.00000000E+00  0.00000000E+00  0.00000000E+00
  0.00000000E+00  0.00000000E+00  0.00000000E+00
  0.00000000E+00  0.00000000E+00  0.00000000E+00
  0.00000000E+00  0.00000000E+00  0.00000000E+00
  0.00000000E+00  0.00000000E+00  0.00000000E+00
  0.00000000E+00  0.00000000E+00  0.00000000E+00
  0.00000000E+00  0.00000000E+00  0.00000000E+00
  0.00000000E+00  0.00000000E+00  0.00000000E+00
  0.00000000E+00  0.00000000E+00  0.00000000E+00
  0.00000000E+00  0.00000000E+00  0.00000000E+00
  0.00000000E+00  0.00000000E+00  0.00000000E+00
  0.00000000E+00  0.00000000E+00  0.00000000E+00
  0.00000000E+00  0.00000000E+00  0.00000000E+00
  0.00000000E+00  0.00000000E+00  0.00000000E+00
  0.00000000E+00  0.00000000E+00  0.00000000E+00
  0.00000000E+00  0.00000000E+00  0.00000000E+00
  0.00000000E+00  0.00000000E+00  0.00000000E+00
  0.00000000E+00  0.00000000E+00  0.00000000E+00
  0.00000000E+00  0.00000000E+00  0.00000000E+00
  0.00000000E+00  0.00000000E+00  0.00000000E+00
  0.00000000E+00  0.00000000E+00  0.00000000E+00
  0.00000000E+00  0.00000000E+00  0.00000000E+00
  0.00000000E+00  0.00000000E+00  0.00000000E+00
  0.00000000E+00  0.00000000E+00  0.00000000E+00
  0.00000000E+00  0.00000000E+00  0.00000000E+00
  0.00000000E+00  0.00000000E+00  0.00000000E+00
  0.00000000E+00  0.00000000E+00  0.00000000E+00
  0.00000000E+00  0.00000000E+00  0.00000000E+00
  0.00000000E+00  0.00000000E+00  0.00000000E+00
  0.00000000E+00  0.00000000E+00  0.00000000E+00
  0.00000000E+00  0.00000000E+00  0.00000000E+00
  0.00000000E+00  0.00000000E+00  0.00000000E+00
  0.00000000E+00  0.00000000E+00  0.00000000E+00
  0.00000000E+00  0.00000000E+00  0.00000000E+00
  0.00000000E+00  0.00000000E+00  0.00000000E+00
  0.00000000E+00  0.00000000E+00  0.00000000E+00
  0.00000000E+00  0.00000000E+00  0.00000000E+00
  0.00000000E+00  0.00000000E+00  0.00000000E+00
  0.00000000E+00  0.00000000E+00  0.00000000E+00
  0.00000000E+00  0.00000000E+00  0.00000000E+00
  0.00000000E+00  0.00000000E+00  0.00000000E+00
  0.00000000E+00  0.00000000E+00  0.00000000E+00
  0.00000000E+00  0.00000000E+00  0.00000000E+00
  0.00000000E+00  0.00000000E+00  0.00000000E+00
  0.00000000E+00  0.00000000E+00  0.00000000E+00
  0.00000000E+00  0.00000000E+00  0.00000000E+00
  0.00000000E+00  0.00000000E+00  0.00000000E+00
  0.00000000E+00  0.00000000E+00  0.00000000E+00
  0.00000000E+00  0.00000000E+00  0.00000000E+00
