Sb2 Se3                                 
  0.99882000000000204     
    11.9454718211925162    0.0000000000000000    0.0000000000000000
     0.0000000000000000   11.9285311965989376    0.0000000000000000
     0.0000000000000000    0.0000000000000000   11.5287107052303703
   Sb   Se
    25    36
Direct
  0.3114661618225161  0.2499999375303745  0.1401406027879341
  0.5403770541013022  0.0796346296231645  0.1721803976587971
  0.5403769604575841  0.4203654770980789  0.1721803681310623
  0.5292218473544784  0.7500001038568028  0.1757521517656095
  0.4781069628831984  0.2500000325568512  0.8279341230136865
  0.4758103723817264  0.5857762257657334  0.8284980447687117
  0.4758101954292043  0.9142238573908127  0.8284979027384335
  0.9725790876770505  0.2499999442124655  0.6661382953719716
  0.9744918567633620  0.5852589241963841  0.6608427672813292
  0.9744920413143122  0.9147409598312579  0.6608427866922505
  0.0250792340466887  0.0854931570079816  0.3367908104434756
  0.0250792311917359  0.4145067459070084  0.3367908174866169
  0.0215161884576248  0.7499999556960363  0.3258689939230956
  0.6461226878030981  0.2500000748029266  0.4670164516654829
  0.6447562505816907  0.5840526941877909  0.4605600142255516
  0.6447562749492460  0.9159474740750826  0.4605600623427239
  0.3563942260392605  0.0824294956754863  0.5409609863721405
  0.3563942272159713  0.4175706606148188  0.5409610620775894
  0.3558037185384048  0.7500000308525607  0.5442158114259739
  0.8460070292010979  0.0800628202036503  0.9583847289227719
  0.8460069231679891  0.4199369561702895  0.9583846843908946
  0.8595168344809256  0.7499999477092599  0.9695795901040899
  0.1070716689739486  0.2499999590276128  0.9981517441450966
  0.1494087180268323  0.5913181267893254  0.0420496168594589
  0.1494087065918859  0.9086816760529433  0.0420494992862966
  0.6325335646312497  0.2500000660770357  0.0519167787289797
  0.6305327672471580  0.5847618328516125  0.0527009518940206
  0.6305327355779311  0.9152382908575695  0.0527008344355000
  0.3747045836768139  0.0842364703786373  0.9409586898267105
  0.3747046639247074  0.4157636538462386  0.9409587776057839
  0.3772531724162733  0.7500000230563013  0.9488436657240814
  0.8720795747563964  0.0826230238060632  0.5537009059081363
  0.8720795199084189  0.4173768386324563  0.5537008810944339
  0.8687451306444591  0.7499999896961136  0.5551472034966330
  0.1260825795553935  0.2499999451239708  0.4545705031823164
  0.1212260196204726  0.5858087347336559  0.4495920414289236
  0.1212260478575775  0.9141911738154298  0.4495920398356444
  0.7155305681971729  0.0836935725383138  0.3099445058768970
  0.7155304897877635  0.4163065462455655  0.3099444960072761
  0.7131829120427249  0.7500000699357928  0.3055388117244839
  0.2942363365053519  0.2500000710596768  0.6941010808183669
  0.2917308886060266  0.5849392338121288  0.6969249081735616
  0.2917307903431934  0.9150608138331739  0.6969248688301296
  0.7904288506858167  0.2499999196371853  0.8055572671382173
  0.7960533951710708  0.5858800175361606  0.8080633621798344
  0.7960534940101395  0.9141198608511028  0.8080633254796868
  0.2209519740168863  0.0664422470288960  0.2226308609098609
  0.2209520025107271  0.4335576676169441  0.2226309116852507
  0.2109296468436350  0.7499999784014671  0.1998017957149160
  0.4450129143904218  0.2500000691004714  0.3780586621182249
  0.4483720156225645  0.5833580798953434  0.3663279557124999
  0.4483720328681913  0.9166420726095168  0.3663279464838708
  0.5565564525236764  0.0815344626212711  0.6301215403733427
  0.5565564916546678  0.4184656154798505  0.6301215451759794
  0.5557936615381839  0.7500001300721055  0.6334159364820318
  0.0541690778124291  0.0807136920544042  0.8689046192827858
  0.0541690036918824  0.4192862335048497  0.8689046395905982
  0.0623116515433499  0.7499999024462314  0.8808287909601376
  0.9431518663479129  0.2499999256439059  0.1338408485127499
  0.9505803166179450  0.5808197914440100  0.1323318795235778
  0.9505803474003598  0.9191801169218343  0.1323318212035097

  0.00000000E+00  0.00000000E+00  0.00000000E+00
  0.00000000E+00  0.00000000E+00  0.00000000E+00
  0.00000000E+00  0.00000000E+00  0.00000000E+00
  0.00000000E+00  0.00000000E+00  0.00000000E+00
  0.00000000E+00  0.00000000E+00  0.00000000E+00
  0.00000000E+00  0.00000000E+00  0.00000000E+00
  0.00000000E+00  0.00000000E+00  0.00000000E+00
  0.00000000E+00  0.00000000E+00  0.00000000E+00
  0.00000000E+00  0.00000000E+00  0.00000000E+00
  0.00000000E+00  0.00000000E+00  0.00000000E+00
  0.00000000E+00  0.00000000E+00  0.00000000E+00
  0.00000000E+00  0.00000000E+00  0.00000000E+00
  0.00000000E+00  0.00000000E+00  0.00000000E+00
  0.00000000E+00  0.00000000E+00  0.00000000E+00
  0.00000000E+00  0.00000000E+00  0.00000000E+00
  0.00000000E+00  0.00000000E+00  0.00000000E+00
  0.00000000E+00  0.00000000E+00  0.00000000E+00
  0.00000000E+00  0.00000000E+00  0.00000000E+00
  0.00000000E+00  0.00000000E+00  0.00000000E+00
  0.00000000E+00  0.00000000E+00  0.00000000E+00
  0.00000000E+00  0.00000000E+00  0.00000000E+00
  0.00000000E+00  0.00000000E+00  0.00000000E+00
  0.00000000E+00  0.00000000E+00  0.00000000E+00
  0.00000000E+00  0.00000000E+00  0.00000000E+00
  0.00000000E+00  0.00000000E+00  0.00000000E+00
  0.00000000E+00  0.00000000E+00  0.00000000E+00
  0.00000000E+00  0.00000000E+00  0.00000000E+00
  0.00000000E+00  0.00000000E+00  0.00000000E+00
  0.00000000E+00  0.00000000E+00  0.00000000E+00
  0.00000000E+00  0.00000000E+00  0.00000000E+00
  0.00000000E+00  0.00000000E+00  0.00000000E+00
  0.00000000E+00  0.00000000E+00  0.00000000E+00
  0.00000000E+00  0.00000000E+00  0.00000000E+00
  0.00000000E+00  0.00000000E+00  0.00000000E+00
  0.00000000E+00  0.00000000E+00  0.00000000E+00
  0.00000000E+00  0.00000000E+00  0.00000000E+00
  0.00000000E+00  0.00000000E+00  0.00000000E+00
  0.00000000E+00  0.00000000E+00  0.00000000E+00
  0.00000000E+00  0.00000000E+00  0.00000000E+00
  0.00000000E+00  0.00000000E+00  0.00000000E+00
  0.00000000E+00  0.00000000E+00  0.00000000E+00
  0.00000000E+00  0.00000000E+00  0.00000000E+00
  0.00000000E+00  0.00000000E+00  0.00000000E+00
  0.00000000E+00  0.00000000E+00  0.00000000E+00
  0.00000000E+00  0.00000000E+00  0.00000000E+00
  0.00000000E+00  0.00000000E+00  0.00000000E+00
  0.00000000E+00  0.00000000E+00  0.00000000E+00
  0.00000000E+00  0.00000000E+00  0.00000000E+00
  0.00000000E+00  0.00000000E+00  0.00000000E+00
  0.00000000E+00  0.00000000E+00  0.00000000E+00
  0.00000000E+00  0.00000000E+00  0.00000000E+00
  0.00000000E+00  0.00000000E+00  0.00000000E+00
  0.00000000E+00  0.00000000E+00  0.00000000E+00
  0.00000000E+00  0.00000000E+00  0.00000000E+00
  0.00000000E+00  0.00000000E+00  0.00000000E+00
  0.00000000E+00  0.00000000E+00  0.00000000E+00
  0.00000000E+00  0.00000000E+00  0.00000000E+00
  0.00000000E+00  0.00000000E+00  0.00000000E+00
  0.00000000E+00  0.00000000E+00  0.00000000E+00
  0.00000000E+00  0.00000000E+00  0.00000000E+00
  0.00000000E+00  0.00000000E+00  0.00000000E+00
