Sb2 Se3                                 
  0.99882000000000204     
    11.9454718211925162    0.0000000000000000    0.0000000000000000
     0.0000000000000000   11.9285311965989376    0.0000000000000000
     0.0000000000000000    0.0000000000000000   11.5287107052303703
   Sb   Se
    25    36
Direct
  0.3147951301042046  0.2500000844208904  0.1424185868680881
  0.5424610077463542  0.0823787712670605  0.1768567704346219
  0.5424610774885540  0.4176213323693320  0.1768567343716205
  0.5306975547460123  0.7500000804960517  0.1765338189908796
  0.4739840360816128  0.2500000275035234  0.8263047717687296
  0.4707980547122753  0.5856954685360192  0.8282692596903254
  0.4707979862329645  0.9143046719880027  0.8282691925653268
  0.9714121519649314  0.2499998960554451  0.6689540149231952
  0.9685023949216719  0.5866486090726806  0.6660323680136176
  0.9685024000606884  0.9133512504635936  0.6660323526397833
  0.0294262835111590  0.0854252258392165  0.3338159185760763
  0.0294262281805037  0.4145746945329453  0.3338159743799081
  0.0203303214905289  0.7499999945030686  0.3294150963950924
  0.6526217258045665  0.2500000472287860  0.4718921416015651
  0.6479616895482566  0.5849600850328951  0.4652948909681679
  0.6479617508856709  0.9150401301836421  0.4652949094064464
  0.3569811396601312  0.0830054785798479  0.5382433400135320
  0.3569811390613338  0.4169946869064865  0.5382434532181125
  0.3538562630142153  0.7500000790969321  0.5393747992999026
  0.8476578543620262  0.0816296105903848  0.9621071374125734
  0.8476579115895378  0.4183700217911354  0.9621071734302454
  0.8547382074787377  0.7499998618303003  0.9696334450491202
  0.1232851668730632  0.2499998776635813  0.9771388315677982
  0.1482959552897248  0.5907753568167540  0.0410875749644752
  0.1482959029782529  0.9092245825294631  0.0410874150207971
  0.6333446447265584  0.2500000497684975  0.0529169580063483
  0.6294297315290891  0.5838672198994048  0.0554374222121203
  0.6294297042143334  0.9161329531073600  0.0554374146455022
  0.3729190556959692  0.0834415142153928  0.9422017365158452
  0.3729191705882576  0.4165585900084885  0.9422017768347327
  0.3738117685841313  0.7500000411071622  0.9501574083873133
  0.8730406407494334  0.0826864212826376  0.5547482713497447
  0.8730406308217440  0.4173133993795953  0.5547483259558755
  0.8648645139334635  0.7499999456878367  0.5523226554001451
  0.1280809895295196  0.2499999637906655  0.4526306866908964
  0.1202582961261363  0.5861771276929958  0.4496305425033051
  0.1202583272655078  0.9138228729554040  0.4496305261144400
  0.7182469983942571  0.0855881192969969  0.3131072837171283
  0.7182470172046347  0.4144119637337097  0.3131073134113679
  0.7128107670204674  0.7500001132074607  0.3081136436350732
  0.2919731574741889  0.2500000631799354  0.6932015977149480
  0.2899987019388317  0.5853309847165256  0.6939039452847245
  0.2899986438410875  0.9146691278151754  0.6939039154352531
  0.7903387485377072  0.2499998984119359  0.8067108926377677
  0.7904360085706901  0.5870601701972604  0.8095573203233785
  0.7904359551372206  0.9129396160596590  0.8095572381353975
  0.2237522815042899  0.0636414484213239  0.2219503320248036
  0.2237522838491637  0.4363585926866621  0.2219505099919820
  0.2086249176587830  0.7499999926505406  0.1987351221330802
  0.4533616649061021  0.2500000221095682  0.3810324928336377
  0.4519556756456309  0.5818501499397589  0.3698818636185777
  0.4519557099006650  0.9181500547031836  0.3698818646867156
  0.5545882383739892  0.0809926851319241  0.6322260746116792
  0.5545882717107575  0.4190073822076639  0.6322260900933409
  0.5532244195218491  0.7500001095624503  0.6291645862492580
  0.0475831905343824  0.0717215554614466  0.8613038164802713
  0.0475832448035760  0.4282781814447427  0.8613038607910306
  0.0581742273615193  0.7499999160046107  0.8815616453280232
  0.9588149047121473  0.2499999142102902  0.1191158903083275
  0.9494800812572528  0.5800857283417661  0.1313584944415506
  0.9494800825897116  0.9199141863119145  0.1313584769263715

  0.00000000E+00  0.00000000E+00  0.00000000E+00
  0.00000000E+00  0.00000000E+00  0.00000000E+00
  0.00000000E+00  0.00000000E+00  0.00000000E+00
  0.00000000E+00  0.00000000E+00  0.00000000E+00
  0.00000000E+00  0.00000000E+00  0.00000000E+00
  0.00000000E+00  0.00000000E+00  0.00000000E+00
  0.00000000E+00  0.00000000E+00  0.00000000E+00
  0.00000000E+00  0.00000000E+00  0.00000000E+00
  0.00000000E+00  0.00000000E+00  0.00000000E+00
  0.00000000E+00  0.00000000E+00  0.00000000E+00
  0.00000000E+00  0.00000000E+00  0.00000000E+00
  0.00000000E+00  0.00000000E+00  0.00000000E+00
  0.00000000E+00  0.00000000E+00  0.00000000E+00
  0.00000000E+00  0.00000000E+00  0.00000000E+00
  0.00000000E+00  0.00000000E+00  0.00000000E+00
  0.00000000E+00  0.00000000E+00  0.00000000E+00
  0.00000000E+00  0.00000000E+00  0.00000000E+00
  0.00000000E+00  0.00000000E+00  0.00000000E+00
  0.00000000E+00  0.00000000E+00  0.00000000E+00
  0.00000000E+00  0.00000000E+00  0.00000000E+00
  0.00000000E+00  0.00000000E+00  0.00000000E+00
  0.00000000E+00  0.00000000E+00  0.00000000E+00
  0.00000000E+00  0.00000000E+00  0.00000000E+00
  0.00000000E+00  0.00000000E+00  0.00000000E+00
  0.00000000E+00  0.00000000E+00  0.00000000E+00
  0.00000000E+00  0.00000000E+00  0.00000000E+00
  0.00000000E+00  0.00000000E+00  0.00000000E+00
  0.00000000E+00  0.00000000E+00  0.00000000E+00
  0.00000000E+00  0.00000000E+00  0.00000000E+00
  0.00000000E+00  0.00000000E+00  0.00000000E+00
  0.00000000E+00  0.00000000E+00  0.00000000E+00
  0.00000000E+00  0.00000000E+00  0.00000000E+00
  0.00000000E+00  0.00000000E+00  0.00000000E+00
  0.00000000E+00  0.00000000E+00  0.00000000E+00
  0.00000000E+00  0.00000000E+00  0.00000000E+00
  0.00000000E+00  0.00000000E+00  0.00000000E+00
  0.00000000E+00  0.00000000E+00  0.00000000E+00
  0.00000000E+00  0.00000000E+00  0.00000000E+00
  0.00000000E+00  0.00000000E+00  0.00000000E+00
  0.00000000E+00  0.00000000E+00  0.00000000E+00
  0.00000000E+00  0.00000000E+00  0.00000000E+00
  0.00000000E+00  0.00000000E+00  0.00000000E+00
  0.00000000E+00  0.00000000E+00  0.00000000E+00
  0.00000000E+00  0.00000000E+00  0.00000000E+00
  0.00000000E+00  0.00000000E+00  0.00000000E+00
  0.00000000E+00  0.00000000E+00  0.00000000E+00
  0.00000000E+00  0.00000000E+00  0.00000000E+00
  0.00000000E+00  0.00000000E+00  0.00000000E+00
  0.00000000E+00  0.00000000E+00  0.00000000E+00
  0.00000000E+00  0.00000000E+00  0.00000000E+00
  0.00000000E+00  0.00000000E+00  0.00000000E+00
  0.00000000E+00  0.00000000E+00  0.00000000E+00
  0.00000000E+00  0.00000000E+00  0.00000000E+00
  0.00000000E+00  0.00000000E+00  0.00000000E+00
  0.00000000E+00  0.00000000E+00  0.00000000E+00
  0.00000000E+00  0.00000000E+00  0.00000000E+00
  0.00000000E+00  0.00000000E+00  0.00000000E+00
  0.00000000E+00  0.00000000E+00  0.00000000E+00
  0.00000000E+00  0.00000000E+00  0.00000000E+00
  0.00000000E+00  0.00000000E+00  0.00000000E+00
  0.00000000E+00  0.00000000E+00  0.00000000E+00
