Sb2 Se3                                 
  0.998820000000002     
    11.9454718211925126    0.0000000000000000    0.0000000000000000
     0.0000000000000000   11.9285311965989376    0.0000000000000000
     0.0000000000000000    0.0000000000000000   11.5287107052303703
   Sb   Se
    25    36
Direct
  0.3305442401448607  0.2499999448494918  0.1687525053158782
  0.5450788611148885  0.0790423092956799  0.1673225878641783
  0.5450787523008661  0.4209577404529351  0.1673225682923162
  0.5310334709215963  0.7500000231143940  0.1803425195319820
  0.4743037688001380  0.2500000438950301  0.8253233713163354
  0.4717601748277926  0.5847174628770604  0.8291615379683762
  0.4717601038390525  0.9152826564684351  0.8291615406833861
  0.9723022088670202  0.2499999393337002  0.6695373019215680
  0.9736841772098824  0.5848887343320601  0.6615117614243949
  0.9736842575139576  0.9151112355145388  0.6615117591467008
  0.0247090712056485  0.0862477316825294  0.3366933628564919
  0.0247090910026085  0.4137521763136616  0.3366933372628139
  0.0212799086848611  0.7499999978879583  0.3236192173706646
  0.6488595392179526  0.2500000375755687  0.4588428327606802
  0.6440459367189142  0.5848335715038725  0.4662692931969138
  0.6440459504927182  0.9151665603678221  0.4662693613534436
  0.3491812221104810  0.0791851932797827  0.5436001044918050
  0.3491812149295547  0.4208149137063080  0.5436001532360654
  0.3539350154482903  0.7500000285999462  0.5356804509448778
  0.8487766475736485  0.0817817392749418  0.9613199399984645
  0.8487766125804987  0.4182180892209056  0.9613199293225944
  0.8581913324497898  0.7499999737825094  0.9682232224033090
  0.1202500224249617  0.2499999463365744  0.0008057299527416
  0.1500875980096317  0.5914488513118920  0.0369897509162880
  0.1500875484265465  0.9085511524420409  0.0369896764157372
  0.6347335952491363  0.2500000657628393  0.0475818831768703
  0.6321968469779350  0.5863637988226448  0.0521430917870186
  0.6321969546721885  0.9136362751859823  0.0521431081240154
  0.3750854763611077  0.0831619332468180  0.9426748991175330
  0.3750855819820062  0.4168381860355923  0.9426749141962700
  0.3747654764360892  0.7499999863950462  0.9498816106617328
  0.8716463657860138  0.0835678363386524  0.5547301858964928
  0.8716463473124073  0.4164320178738072  0.5547302655488409
  0.8683272879956868  0.7500000210958140  0.5556465036896432
  0.1257331887352173  0.2499999151685652  0.4533844102786317
  0.1199623345152082  0.5858959822599002  0.4481645723444920
  0.1199623251609889  0.9141040047128840  0.4481646422077910
  0.7165113911919253  0.0851592426222081  0.3088810729633656
  0.7165112860580025  0.4148408647681107  0.3088810708429547
  0.7132786220151321  0.7500001105998035  0.3092811503862313
  0.2892356626636778  0.2500001263834913  0.6953703041041152
  0.2894864263584860  0.5880030948482494  0.6956148794964540
  0.2894864313411079  0.9119970073883966  0.6956148697479070
  0.7911222254392257  0.2499999773537757  0.8062386589388298
  0.7968194130810031  0.5854315496469151  0.8089135635798309
  0.7968194077592529  0.9145683598232562  0.8089134644392155
  0.2192946871382274  0.0682969565315540  0.2193470719782180
  0.2192946900894693  0.4317028956076916  0.2193470632649016
  0.2099852873539962  0.7499999818570688  0.1974071373789054
  0.4394207830189837  0.2499999353566150  0.3832607668089175
  0.4497616273471378  0.5816931001742849  0.3671272413979692
  0.4497616701314497  0.9183070093271741  0.3671272572650455
  0.5504855434048563  0.0819888711039835  0.6281157551330266
  0.5504855393970259  0.4180112041475755  0.6281157772128780
  0.5535622995691039  0.7499999968183418  0.6256099542417819
  0.0538832206994823  0.0817861622150422  0.8696121455279020
  0.0538831989399629  0.4182136714740680  0.8696121555466408
  0.0618882848715573  0.7499999456157906  0.8797701544270307
  0.9482570309580953  0.2499999890665419  0.1296867724510113
  0.9523843711104062  0.5805831283809009  0.1303628389706764
  0.9523843920623828  0.9194167425709777  0.1303629379188706
 
  0.00000000E+00  0.00000000E+00  0.00000000E+00
  0.00000000E+00  0.00000000E+00  0.00000000E+00
  0.00000000E+00  0.00000000E+00  0.00000000E+00
  0.00000000E+00  0.00000000E+00  0.00000000E+00
  0.00000000E+00  0.00000000E+00  0.00000000E+00
  0.00000000E+00  0.00000000E+00  0.00000000E+00
  0.00000000E+00  0.00000000E+00  0.00000000E+00
  0.00000000E+00  0.00000000E+00  0.00000000E+00
  0.00000000E+00  0.00000000E+00  0.00000000E+00
  0.00000000E+00  0.00000000E+00  0.00000000E+00
  0.00000000E+00  0.00000000E+00  0.00000000E+00
  0.00000000E+00  0.00000000E+00  0.00000000E+00
  0.00000000E+00  0.00000000E+00  0.00000000E+00
  0.00000000E+00  0.00000000E+00  0.00000000E+00
  0.00000000E+00  0.00000000E+00  0.00000000E+00
  0.00000000E+00  0.00000000E+00  0.00000000E+00
  0.00000000E+00  0.00000000E+00  0.00000000E+00
  0.00000000E+00  0.00000000E+00  0.00000000E+00
  0.00000000E+00  0.00000000E+00  0.00000000E+00
  0.00000000E+00  0.00000000E+00  0.00000000E+00
  0.00000000E+00  0.00000000E+00  0.00000000E+00
  0.00000000E+00  0.00000000E+00  0.00000000E+00
  0.00000000E+00  0.00000000E+00  0.00000000E+00
  0.00000000E+00  0.00000000E+00  0.00000000E+00
  0.00000000E+00  0.00000000E+00  0.00000000E+00
  0.00000000E+00  0.00000000E+00  0.00000000E+00
  0.00000000E+00  0.00000000E+00  0.00000000E+00
  0.00000000E+00  0.00000000E+00  0.00000000E+00
  0.00000000E+00  0.00000000E+00  0.00000000E+00
  0.00000000E+00  0.00000000E+00  0.00000000E+00
  0.00000000E+00  0.00000000E+00  0.00000000E+00
  0.00000000E+00  0.00000000E+00  0.00000000E+00
  0.00000000E+00  0.00000000E+00  0.00000000E+00
  0.00000000E+00  0.00000000E+00  0.00000000E+00
  0.00000000E+00  0.00000000E+00  0.00000000E+00
  0.00000000E+00  0.00000000E+00  0.00000000E+00
  0.00000000E+00  0.00000000E+00  0.00000000E+00
  0.00000000E+00  0.00000000E+00  0.00000000E+00
  0.00000000E+00  0.00000000E+00  0.00000000E+00
  0.00000000E+00  0.00000000E+00  0.00000000E+00
  0.00000000E+00  0.00000000E+00  0.00000000E+00
  0.00000000E+00  0.00000000E+00  0.00000000E+00
  0.00000000E+00  0.00000000E+00  0.00000000E+00
  0.00000000E+00  0.00000000E+00  0.00000000E+00
  0.00000000E+00  0.00000000E+00  0.00000000E+00
  0.00000000E+00  0.00000000E+00  0.00000000E+00
  0.00000000E+00  0.00000000E+00  0.00000000E+00
  0.00000000E+00  0.00000000E+00  0.00000000E+00
  0.00000000E+00  0.00000000E+00  0.00000000E+00
  0.00000000E+00  0.00000000E+00  0.00000000E+00
  0.00000000E+00  0.00000000E+00  0.00000000E+00
  0.00000000E+00  0.00000000E+00  0.00000000E+00
  0.00000000E+00  0.00000000E+00  0.00000000E+00
  0.00000000E+00  0.00000000E+00  0.00000000E+00
  0.00000000E+00  0.00000000E+00  0.00000000E+00
  0.00000000E+00  0.00000000E+00  0.00000000E+00
  0.00000000E+00  0.00000000E+00  0.00000000E+00
  0.00000000E+00  0.00000000E+00  0.00000000E+00
  0.00000000E+00  0.00000000E+00  0.00000000E+00
  0.00000000E+00  0.00000000E+00  0.00000000E+00
  0.00000000E+00  0.00000000E+00  0.00000000E+00
