Sb2 Se3                                 
  0.998820000000002     
    11.9454718211925144    0.0000000000000000    0.0000000000000000
     0.0000000000000000   11.9285311965989376    0.0000000000000000
     0.0000000000000000    0.0000000000000000   11.5287107052303703
   Sb   Se
    25    36
Direct
  0.3032357747736792  0.2500554566141038  0.1397798127559101
  0.5386606684359411  0.0847160604251075  0.1767432344571556
  0.5386799521498368  0.4152991296632183  0.1767509673914676
  0.5263397635945254  0.7500025896919968  0.1712868202960308
  0.4767351363279433  0.2500048535104764  0.8273681126509033
  0.4707873135249478  0.5866829855934752  0.8283359565438959
  0.4707750763744376  0.9133368178737714  0.8283489570106746
  0.9731850519377068  0.2499769047644359  0.6704489070390263
  0.9644345354604269  0.5924330999862507  0.6675085100885253
  0.9644049947211212  0.9075459589269371  0.6675607331036897
  0.0301163884249545  0.0862651449518372  0.3377696545769383
  0.0300961102715646  0.4137347220996879  0.3378007616062446
  0.0157447844908607  0.7500156935795507  0.3313796612137582
  0.6563026352948729  0.2500040216410022  0.4717656203424839
  0.6478698701501928  0.5861903210802456  0.4648948244297709
  0.6478656311867685  0.9138402202021354  0.4648891968626898
  0.3600081049028633  0.0833440537837617  0.5361968687110830
  0.3600186553558143  0.4166616898325341  0.5361943444771629
  0.3524241271203860  0.7500017733494913  0.5383328065745238
  0.8556790723930977  0.0853989914851571  0.9655510322139844
  0.8557084518652105  0.4145432808143602  0.9655877322729349
  0.8493590009708449  0.7499686124213202  0.9644942705609543
  0.1485038685101109  0.2499995976308717  0.9457798270839787
  0.1450317436584461  0.5895753146211664  0.0468379884993357
  0.1449994575932690  0.9104369475017553  0.0467790162281988
  0.6348524020064055  0.2500066961634088  0.0558106103509332
  0.6274315547638090  0.5844507059946393  0.0565905016214501
  0.6274252358700758  0.9155635093425935  0.0565976077172024
  0.3744353758492250  0.0829536597459083  0.9433733535066807
  0.3744292906945456  0.4170649524497904  0.9433493249138831
  0.3707771052272532  0.7500055641810126  0.9484642076278922
  0.8738790668921735  0.0825540064997779  0.5580968008338597
  0.8738941583626491  0.4174205394442189  0.5580843428587272
  0.8579442000392002  0.7499552742386236  0.5445614087664205
  0.1304859916330101  0.2499954429333741  0.4573737711935743
  0.1171402510007580  0.5869459645953199  0.4511553445472647
  0.1171423556620789  0.9130770490530999  0.4511604610941887
  0.7169557534805769  0.0850587994587796  0.3129560518199520
  0.7169660760322958  0.4149533459628093  0.3129613467145836
  0.7079291117832313  0.7500037485099971  0.3061464951087952
  0.2958660831527418  0.2499999012610234  0.6927888732354913
  0.2902837620315930  0.5843898073343646  0.6927359731904517
  0.2902774667477730  0.9156223653001203  0.6927371954006549
  0.7928216927276710  0.2500064467797792  0.8085691044772336
  0.7860383594858658  0.5899490351226844  0.8096484468303323
  0.7859776382292304  0.9099675504201444  0.8096334068980271
  0.2249808178424084  0.0614259215924797  0.2287838665927232
  0.2249895497164346  0.4386351837822457  0.2288548771986340
  0.2064192329753083  0.7500329229431707  0.2019287660951716
  0.4572725462565799  0.2500072805987432  0.3795223262596050
  0.4505835989348526  0.5815847415511304  0.3712896209967376
  0.4505849642300922  0.9184261315001618  0.3712859822888921
  0.5562278500596292  0.0810840715614543  0.6338426091519107
  0.5562291056221477  0.4189223743898772  0.6338539791422644
  0.5516322955705039  0.7500092152287761  0.6293409850441470
  0.0456197838060898  0.0583156183311671  0.8566869608557907
  0.0456945283196887  0.4416354622970430  0.8567839212344531
  0.0578551849156555  0.7499851160430214  0.8875731331175256
  0.9781261459549678  0.2499575882202283  0.0954157333752470
  0.9472881880975142  0.5776415677053741  0.1375221818323678
  0.9472691065361649  0.9223581974190199  0.1374927781156089
 
  0.00000000E+00  0.00000000E+00  0.00000000E+00
  0.00000000E+00  0.00000000E+00  0.00000000E+00
  0.00000000E+00  0.00000000E+00  0.00000000E+00
  0.00000000E+00  0.00000000E+00  0.00000000E+00
  0.00000000E+00  0.00000000E+00  0.00000000E+00
  0.00000000E+00  0.00000000E+00  0.00000000E+00
  0.00000000E+00  0.00000000E+00  0.00000000E+00
  0.00000000E+00  0.00000000E+00  0.00000000E+00
  0.00000000E+00  0.00000000E+00  0.00000000E+00
  0.00000000E+00  0.00000000E+00  0.00000000E+00
  0.00000000E+00  0.00000000E+00  0.00000000E+00
  0.00000000E+00  0.00000000E+00  0.00000000E+00
  0.00000000E+00  0.00000000E+00  0.00000000E+00
  0.00000000E+00  0.00000000E+00  0.00000000E+00
  0.00000000E+00  0.00000000E+00  0.00000000E+00
  0.00000000E+00  0.00000000E+00  0.00000000E+00
  0.00000000E+00  0.00000000E+00  0.00000000E+00
  0.00000000E+00  0.00000000E+00  0.00000000E+00
  0.00000000E+00  0.00000000E+00  0.00000000E+00
  0.00000000E+00  0.00000000E+00  0.00000000E+00
  0.00000000E+00  0.00000000E+00  0.00000000E+00
  0.00000000E+00  0.00000000E+00  0.00000000E+00
  0.00000000E+00  0.00000000E+00  0.00000000E+00
  0.00000000E+00  0.00000000E+00  0.00000000E+00
  0.00000000E+00  0.00000000E+00  0.00000000E+00
  0.00000000E+00  0.00000000E+00  0.00000000E+00
  0.00000000E+00  0.00000000E+00  0.00000000E+00
  0.00000000E+00  0.00000000E+00  0.00000000E+00
  0.00000000E+00  0.00000000E+00  0.00000000E+00
  0.00000000E+00  0.00000000E+00  0.00000000E+00
  0.00000000E+00  0.00000000E+00  0.00000000E+00
  0.00000000E+00  0.00000000E+00  0.00000000E+00
  0.00000000E+00  0.00000000E+00  0.00000000E+00
  0.00000000E+00  0.00000000E+00  0.00000000E+00
  0.00000000E+00  0.00000000E+00  0.00000000E+00
  0.00000000E+00  0.00000000E+00  0.00000000E+00
  0.00000000E+00  0.00000000E+00  0.00000000E+00
  0.00000000E+00  0.00000000E+00  0.00000000E+00
  0.00000000E+00  0.00000000E+00  0.00000000E+00
  0.00000000E+00  0.00000000E+00  0.00000000E+00
  0.00000000E+00  0.00000000E+00  0.00000000E+00
  0.00000000E+00  0.00000000E+00  0.00000000E+00
  0.00000000E+00  0.00000000E+00  0.00000000E+00
  0.00000000E+00  0.00000000E+00  0.00000000E+00
  0.00000000E+00  0.00000000E+00  0.00000000E+00
  0.00000000E+00  0.00000000E+00  0.00000000E+00
  0.00000000E+00  0.00000000E+00  0.00000000E+00
  0.00000000E+00  0.00000000E+00  0.00000000E+00
  0.00000000E+00  0.00000000E+00  0.00000000E+00
  0.00000000E+00  0.00000000E+00  0.00000000E+00
  0.00000000E+00  0.00000000E+00  0.00000000E+00
  0.00000000E+00  0.00000000E+00  0.00000000E+00
  0.00000000E+00  0.00000000E+00  0.00000000E+00
  0.00000000E+00  0.00000000E+00  0.00000000E+00
  0.00000000E+00  0.00000000E+00  0.00000000E+00
  0.00000000E+00  0.00000000E+00  0.00000000E+00
  0.00000000E+00  0.00000000E+00  0.00000000E+00
  0.00000000E+00  0.00000000E+00  0.00000000E+00
  0.00000000E+00  0.00000000E+00  0.00000000E+00
  0.00000000E+00  0.00000000E+00  0.00000000E+00
  0.00000000E+00  0.00000000E+00  0.00000000E+00
