Sb2 Se3                                 
  0.998820000000002     
    11.9454718211925126    0.0000000000000000    0.0000000000000000
     0.0000000000000000   11.9285311965989376    0.0000000000000000
     0.0000000000000000    0.0000000000000000   11.5287107052303703
   Sb   Se
    25    36
Direct
  0.3071585921771404  0.2499997960981537  0.1201968456541699
  0.5343366533422604  0.0896661243602675  0.1880846899858812
  0.5343366709568597  0.4103338425942090  0.1880849662178300
  0.5208063019589705  0.7500000516135978  0.1947436063506113
  0.4746069942572195  0.2499999578414513  0.8451346466823527
  0.5242490784842410  0.6273445240328537  0.8681963816405072
  0.5242490496365290  0.8726553310977021  0.8681962973254911
  0.9699335924309211  0.2499998847087481  0.6674130042551136
  0.9662218892422187  0.5883324955438746  0.6639093146807835
  0.9662222783632547  0.9116677944659146  0.6639088047171455
  0.0313419777660051  0.0848057581624866  0.3246668182653831
  0.0313419999684275  0.4151944900282007  0.3246670117345047
  0.0108885959076698  0.7499996838770798  0.3282606880123242
  0.6486052776768073  0.2500003090989697  0.4764689809851058
  0.6460996594743916  0.5840253749217174  0.4656310571069365
  0.6460997735736348  0.9159753540785263  0.4656308052420883
  0.3525045367609368  0.0755413230185781  0.5496624913315922
  0.3525046607922064  0.4244589415974190  0.5496625332090458
  0.3392062593460816  0.7500000603819060  0.5506609176115370
  0.8532929938263395  0.0874126360390215  0.9664619758406248
  0.8532929721351140  0.4125862802269651  0.9664616532378543
  0.8494367983422438  0.7499996333271921  0.9560004380955683
  0.1525216700031800  0.2500000507227393  0.9366946676438969
  0.1454870737785670  0.5885956489543313  0.0451074750981534
  0.1454870621337384  0.9114040610060814  0.0451075718147153
  0.6300432386777783  0.2500002273843390  0.0521522852575464
  0.6320776312864466  0.5894363979436417  0.0667035589536933
  0.6320777738782914  0.9105635736421971  0.0667035222936213
  0.3675760105364924  0.0880619360256831  0.9478594669872628
  0.3675755003334392  0.4119376174290252  0.9478596390485252
  0.3632739842691213  0.7499999325912590  0.9592649612089788
  0.8716191444818884  0.0841574539397036  0.5531328420636211
  0.8716194246110147  0.4158426841207913  0.5531330616303245
  0.8575368269096746  0.7500001210600935  0.5467602656024794
  0.1310949179742860  0.2499999495437071  0.4435763849630334
  0.1112484810967650  0.5859570014056058  0.4487769053271400
  0.1112481387748830  0.9140430395313285  0.4487767573994830
  0.7187363546165001  0.0840470848477576  0.3078754871473733
  0.7187363336907253  0.4159534567862362  0.3078758140021201
  0.7104843401399140  0.7500000571960841  0.3070386955475957
  0.2938612990269162  0.2500001151206775  0.6931156832014712
  0.2925459520488038  0.5850153896307070  0.6978350544923874
  0.2925458401882555  0.9149847441666100  0.6978350145503252
  0.7914781680304054  0.2499997690593529  0.8065935240551555
  0.7837742450698774  0.5860999879326326  0.8059448074123503
  0.7837745798040991  0.9138997286922713  0.8059450047829054
  0.2227330378381090  0.0522786092582632  0.2173026264773823
  0.2227331020610364  0.4477209953116809  0.2173026184075371
  0.2012511355805366  0.7499998632497560  0.2009522288264361
  0.4593580546076144  0.2500000620387468  0.3672034363108230
  0.4518100481211608  0.5796622258334176  0.3636542427084898
  0.4518101144925961  0.9203381352242640  0.3636539493173679
  0.5568070012532448  0.0822090699553807  0.6261310710998841
  0.5568070973655135  0.4177912077432345  0.6261312335794171
  0.5491980177029022  0.7500003416037238  0.6128793746829198
  0.0420719200808602  0.0594577286295491  0.8560591867355556
  0.0420719474689708  0.4405425226943084  0.8560592716082446
  0.0526627173690819  0.7499998514942459  0.8739256317040270
  0.9775985031902700  0.2499999983773636  0.0930817489844042
  0.9453094458389789  0.5801224806146289  0.1316246148500023
  0.9453092592486677  0.9198772321237308  0.1316243530408380
 
  0.00000000E+00  0.00000000E+00  0.00000000E+00
  0.00000000E+00  0.00000000E+00  0.00000000E+00
  0.00000000E+00  0.00000000E+00  0.00000000E+00
  0.00000000E+00  0.00000000E+00  0.00000000E+00
  0.00000000E+00  0.00000000E+00  0.00000000E+00
  0.00000000E+00  0.00000000E+00  0.00000000E+00
  0.00000000E+00  0.00000000E+00  0.00000000E+00
  0.00000000E+00  0.00000000E+00  0.00000000E+00
  0.00000000E+00  0.00000000E+00  0.00000000E+00
  0.00000000E+00  0.00000000E+00  0.00000000E+00
  0.00000000E+00  0.00000000E+00  0.00000000E+00
  0.00000000E+00  0.00000000E+00  0.00000000E+00
  0.00000000E+00  0.00000000E+00  0.00000000E+00
  0.00000000E+00  0.00000000E+00  0.00000000E+00
  0.00000000E+00  0.00000000E+00  0.00000000E+00
  0.00000000E+00  0.00000000E+00  0.00000000E+00
  0.00000000E+00  0.00000000E+00  0.00000000E+00
  0.00000000E+00  0.00000000E+00  0.00000000E+00
  0.00000000E+00  0.00000000E+00  0.00000000E+00
  0.00000000E+00  0.00000000E+00  0.00000000E+00
  0.00000000E+00  0.00000000E+00  0.00000000E+00
  0.00000000E+00  0.00000000E+00  0.00000000E+00
  0.00000000E+00  0.00000000E+00  0.00000000E+00
  0.00000000E+00  0.00000000E+00  0.00000000E+00
  0.00000000E+00  0.00000000E+00  0.00000000E+00
  0.00000000E+00  0.00000000E+00  0.00000000E+00
  0.00000000E+00  0.00000000E+00  0.00000000E+00
  0.00000000E+00  0.00000000E+00  0.00000000E+00
  0.00000000E+00  0.00000000E+00  0.00000000E+00
  0.00000000E+00  0.00000000E+00  0.00000000E+00
  0.00000000E+00  0.00000000E+00  0.00000000E+00
  0.00000000E+00  0.00000000E+00  0.00000000E+00
  0.00000000E+00  0.00000000E+00  0.00000000E+00
  0.00000000E+00  0.00000000E+00  0.00000000E+00
  0.00000000E+00  0.00000000E+00  0.00000000E+00
  0.00000000E+00  0.00000000E+00  0.00000000E+00
  0.00000000E+00  0.00000000E+00  0.00000000E+00
  0.00000000E+00  0.00000000E+00  0.00000000E+00
  0.00000000E+00  0.00000000E+00  0.00000000E+00
  0.00000000E+00  0.00000000E+00  0.00000000E+00
  0.00000000E+00  0.00000000E+00  0.00000000E+00
  0.00000000E+00  0.00000000E+00  0.00000000E+00
  0.00000000E+00  0.00000000E+00  0.00000000E+00
  0.00000000E+00  0.00000000E+00  0.00000000E+00
  0.00000000E+00  0.00000000E+00  0.00000000E+00
  0.00000000E+00  0.00000000E+00  0.00000000E+00
  0.00000000E+00  0.00000000E+00  0.00000000E+00
  0.00000000E+00  0.00000000E+00  0.00000000E+00
  0.00000000E+00  0.00000000E+00  0.00000000E+00
  0.00000000E+00  0.00000000E+00  0.00000000E+00
  0.00000000E+00  0.00000000E+00  0.00000000E+00
  0.00000000E+00  0.00000000E+00  0.00000000E+00
  0.00000000E+00  0.00000000E+00  0.00000000E+00
  0.00000000E+00  0.00000000E+00  0.00000000E+00
  0.00000000E+00  0.00000000E+00  0.00000000E+00
  0.00000000E+00  0.00000000E+00  0.00000000E+00
  0.00000000E+00  0.00000000E+00  0.00000000E+00
  0.00000000E+00  0.00000000E+00  0.00000000E+00
  0.00000000E+00  0.00000000E+00  0.00000000E+00
  0.00000000E+00  0.00000000E+00  0.00000000E+00
  0.00000000E+00  0.00000000E+00  0.00000000E+00
