Sb2 Se3                                 
  0.998820000000002     
    11.9454718211924984    0.0000000000000000    0.0000000000000000
     0.0000000000000000   11.9285311965989376    0.0000000000000000
     0.0000000000000000    0.0000000000000000   11.5287107052303703
   Sb   Se
    25    36
Direct
  0.3029770863439686  0.2499979339587447  0.1380657961091352
  0.5392604949878230  0.0847392077628724  0.1776803984501718
  0.5392598551949486  0.4152604260078784  0.1776799812054621
  0.5277582729241256  0.7500000003680157  0.1726149012492487
  0.4751362292246636  0.2499999037950385  0.8257202759371102
  0.4704415973979079  0.5859187115336605  0.8273033740371486
  0.4704420147887212  0.9140808143450612  0.8273028350927117
  0.9727166675748919  0.2500005841668115  0.6709548194032442
  0.9636994995450351  0.5892768710515297  0.6687440878947796
  0.9637004232750702  0.9107237934896314  0.6687421104535044
  0.0305255186740663  0.0851937021984135  0.3340577746111895
  0.0305262233136468  0.4148061657988557  0.3340569129478680
  0.0165470094517651  0.7499994127835971  0.3312915527310614
  0.6548882692235780  0.2499999623461796  0.4721922114877206
  0.6486106696924467  0.5857489444837128  0.4651553087540020
  0.6486108415972329  0.9142501271350971  0.4651554298669227
  0.3590734256672066  0.0830046462799869  0.5364435728562608
  0.3590731060326812  0.4169953786975745  0.5364436268075231
  0.3539190349453473  0.7500000296152776  0.5383038093673053
  0.8543633067616427  0.0852670210266538  0.9658199812468719
  0.8543624019247296  0.4147345199191206  0.9658185522764924
  0.8508200556936653  0.7500008027078714  0.9652341289377840
  0.1466840298794117  0.2499998921718179  0.9455155454583520
  0.1458960936950502  0.5901585155447711  0.0458057231939667
  0.1458968973637991  0.9098410263922835  0.0458073490834023
  0.6343094851686145  0.2499998671541812  0.0556504967128104
  0.6280606438517350  0.5840437817274909  0.0569680500688121
  0.6280607931204409  0.9159559503220555  0.0569678524222662
  0.3737948022819296  0.0826853650744601  0.9431439059838215
  0.3737950792242627  0.4173141590020666  0.9431448220364312
  0.3723293651658560  0.7499999079470415  0.9489071665555264
  0.8726537204859526  0.0830803356666286  0.5578477681536076
  0.8726535532895275  0.4169203820435208  0.5578482606241525
  0.8599731870881505  0.7500016688973522  0.5460837744632681
  0.1279372894466021  0.2499999223137511  0.4563519975674027
  0.1173976622029586  0.5856716614209706  0.4505595113636637
  0.1173973634236048  0.9143276608913006  0.4505594412896375
  0.7174809307909252  0.0851746408013253  0.3132797915998383
  0.7174805629943798  0.4148251779508914  0.3132796522795046
  0.7092875085432900  0.7499999021936069  0.3072379940218438
  0.2940005461536332  0.2500000746881795  0.6923063637134436
  0.2899954518150153  0.5845535165150680  0.6928047850066072
  0.2899956279732622  0.9154463015969432  0.6928047685154654
  0.7920695269425057  0.2499996671210174  0.8087775905278275
  0.7859626499147758  0.5899801820909631  0.8100598065605744
  0.7859648001948077  0.9100223946995371  0.8100605780864608
  0.2262570641454693  0.0625133839638356  0.2291830854755553
  0.2262568863742920  0.4374841668614704  0.2291807975222950
  0.2071751538090598  0.7499990472930823  0.2018010647026173
  0.4569752431143990  0.2499998762185121  0.3798994178242438
  0.4513350936458428  0.5817714634089941  0.3720671484256494
  0.4513350799847917  0.9182283629110604  0.3720670795351713
  0.5553470009562519  0.0814143380049315  0.6340341014291572
  0.5553469647154483  0.4185856020463922  0.6340337619146180
  0.5524376685731393  0.7499998440737593  0.6299764251334408
  0.0449936683362940  0.0584034405804417  0.8581627332532902
  0.0449912910695143  0.4415979724487769  0.8581594149663554
  0.0587428276198179  0.7500003497354083  0.8867890645354909
  0.9773276826842121  0.2500014750658511  0.0962054202214267
  0.9481901969116820  0.5785234184672680  0.1366216090157830
  0.9481906028141153  0.9214763452213826  0.1366224060326430
 
  0.00000000E+00  0.00000000E+00  0.00000000E+00
  0.00000000E+00  0.00000000E+00  0.00000000E+00
  0.00000000E+00  0.00000000E+00  0.00000000E+00
  0.00000000E+00  0.00000000E+00  0.00000000E+00
  0.00000000E+00  0.00000000E+00  0.00000000E+00
  0.00000000E+00  0.00000000E+00  0.00000000E+00
  0.00000000E+00  0.00000000E+00  0.00000000E+00
  0.00000000E+00  0.00000000E+00  0.00000000E+00
  0.00000000E+00  0.00000000E+00  0.00000000E+00
  0.00000000E+00  0.00000000E+00  0.00000000E+00
  0.00000000E+00  0.00000000E+00  0.00000000E+00
  0.00000000E+00  0.00000000E+00  0.00000000E+00
  0.00000000E+00  0.00000000E+00  0.00000000E+00
  0.00000000E+00  0.00000000E+00  0.00000000E+00
  0.00000000E+00  0.00000000E+00  0.00000000E+00
  0.00000000E+00  0.00000000E+00  0.00000000E+00
  0.00000000E+00  0.00000000E+00  0.00000000E+00
  0.00000000E+00  0.00000000E+00  0.00000000E+00
  0.00000000E+00  0.00000000E+00  0.00000000E+00
  0.00000000E+00  0.00000000E+00  0.00000000E+00
  0.00000000E+00  0.00000000E+00  0.00000000E+00
  0.00000000E+00  0.00000000E+00  0.00000000E+00
  0.00000000E+00  0.00000000E+00  0.00000000E+00
  0.00000000E+00  0.00000000E+00  0.00000000E+00
  0.00000000E+00  0.00000000E+00  0.00000000E+00
  0.00000000E+00  0.00000000E+00  0.00000000E+00
  0.00000000E+00  0.00000000E+00  0.00000000E+00
  0.00000000E+00  0.00000000E+00  0.00000000E+00
  0.00000000E+00  0.00000000E+00  0.00000000E+00
  0.00000000E+00  0.00000000E+00  0.00000000E+00
  0.00000000E+00  0.00000000E+00  0.00000000E+00
  0.00000000E+00  0.00000000E+00  0.00000000E+00
  0.00000000E+00  0.00000000E+00  0.00000000E+00
  0.00000000E+00  0.00000000E+00  0.00000000E+00
  0.00000000E+00  0.00000000E+00  0.00000000E+00
  0.00000000E+00  0.00000000E+00  0.00000000E+00
  0.00000000E+00  0.00000000E+00  0.00000000E+00
  0.00000000E+00  0.00000000E+00  0.00000000E+00
  0.00000000E+00  0.00000000E+00  0.00000000E+00
  0.00000000E+00  0.00000000E+00  0.00000000E+00
  0.00000000E+00  0.00000000E+00  0.00000000E+00
  0.00000000E+00  0.00000000E+00  0.00000000E+00
  0.00000000E+00  0.00000000E+00  0.00000000E+00
  0.00000000E+00  0.00000000E+00  0.00000000E+00
  0.00000000E+00  0.00000000E+00  0.00000000E+00
  0.00000000E+00  0.00000000E+00  0.00000000E+00
  0.00000000E+00  0.00000000E+00  0.00000000E+00
  0.00000000E+00  0.00000000E+00  0.00000000E+00
  0.00000000E+00  0.00000000E+00  0.00000000E+00
  0.00000000E+00  0.00000000E+00  0.00000000E+00
  0.00000000E+00  0.00000000E+00  0.00000000E+00
  0.00000000E+00  0.00000000E+00  0.00000000E+00
  0.00000000E+00  0.00000000E+00  0.00000000E+00
  0.00000000E+00  0.00000000E+00  0.00000000E+00
  0.00000000E+00  0.00000000E+00  0.00000000E+00
  0.00000000E+00  0.00000000E+00  0.00000000E+00
  0.00000000E+00  0.00000000E+00  0.00000000E+00
  0.00000000E+00  0.00000000E+00  0.00000000E+00
  0.00000000E+00  0.00000000E+00  0.00000000E+00
  0.00000000E+00  0.00000000E+00  0.00000000E+00
  0.00000000E+00  0.00000000E+00  0.00000000E+00
