Sb2 Se3                                 
  0.998820000000002     
    11.9454718211925073    0.0000000000000000    0.0000000000000000
     0.0000000000000000   11.9285311965989376    0.0000000000000000
     0.0000000000000000    0.0000000000000000   11.5287107052303703
   Sb   Se
    25    36
Direct
  0.3212242003647726  0.1958977807954541  0.1293963912033177
  0.5528498486661602  0.0708517553212923  0.1744748552312066
  0.5293688671663304  0.4056541482365377  0.1646734077757344
  0.5297179334277731  0.7422967436974988  0.1828973325977550
  0.4788973331578033  0.2457754506120470  0.8395701369249070
  0.4835654320078115  0.6115490230257528  0.8400989019140267
  0.4909057229563289  0.8609311454563394  0.8366910213324563
  0.9829557703317494  0.2632933013627959  0.6694064120275226
  0.9732430596744258  0.5903782311972197  0.6627032685878778
  0.9734965803724029  0.9270916193937423  0.6948584271689622
  0.9887129263728449  0.0432640376262227  0.3653115070761271
  0.0332513630026999  0.4237288594039171  0.3500762807236079
  0.9768270790413721  0.7975212992071384  0.3656485401421746
  0.6481712193971727  0.2505767791647799  0.4794769235288093
  0.6478883231087167  0.5685055974337520  0.4578568974111840
  0.6551867803016952  0.9069215742131035  0.4581417967254472
  0.3644662963691365  0.0729097692477769  0.5497151126201102
  0.3471287316083697  0.4023888173679696  0.5363473669931588
  0.3524084057514451  0.7389294238773910  0.5323364917112979
  0.8634291400592229  0.1095636957895696  0.9646330690826544
  0.8459599712912328  0.4392304213940605  0.9414806550933031
  0.8497854526825893  0.7667976867441962  0.9558720092621620
  0.1368668759514819  0.2955189861287282  0.0201451855863127
  0.1369704470422829  0.6021762672695047  0.0477959675002663
  0.1542302560488040  0.9149301437883726  0.0492332328856929
  0.6357366231877545  0.2474656073037694  0.0429373583230778
  0.6282073097978134  0.5764160054795329  0.0575596930155339
  0.6364709864093444  0.8987051318930053  0.0561306785865630
  0.3771451132524472  0.0776030072121351  0.9462236455225040
  0.3722049787616749  0.4007044179520156  0.9507631228263531
  0.3635748046726573  0.7410664170241200  0.9770414208295547
  0.8738503745487524  0.0904135901031596  0.5573421344654653
  0.8742261782292670  0.4236857692567017  0.5451080257426333
  0.8600691756549641  0.7735564530375610  0.5614552464145586
  0.1420090114151548  0.2617321029790752  0.4418309567342839
  0.1303598339464644  0.5839285885347567  0.4602435699459946
  0.1330657064405723  0.9120014257458994  0.4748226013852077
  0.7258117283097308  0.0889323682578854  0.3071245515125424
  0.7096298700317423  0.4028144365972405  0.3046612468471029
  0.7190981975868971  0.7400312321259759  0.3046589955435356
  0.2956346535239267  0.2404995516360864  0.6963677656044106
  0.3036096487250369  0.5897455834859353  0.6965258379061481
  0.3075950103086824  0.8956307222066806  0.7011707139373943
  0.7942176733999183  0.2580393412867939  0.7898854067169476
  0.7789231902325134  0.5990340462684812  0.7911759689083188
  0.7835520161985435  0.9334475577972416  0.8058867890480031
  0.2271445241523243  0.0281431486587452  0.2290494300307854
  0.2072206098037188  0.4416126965255588  0.1901896653903203
  0.1870766928433194  0.7533498720792385  0.2022426346942138
  0.4490778981230100  0.2419683443944773  0.3878564022585680
  0.4490179496981509  0.5709180131523538  0.3624771549336089
  0.4601867489791642  0.9193429446766379  0.3555104294648115
  0.5639339233692409  0.0713997972212409  0.6325715228464540
  0.5549648959964734  0.4150197373480096  0.6279946220725449
  0.5613759476094056  0.7465688752768163  0.5987261320121711
  0.0573823168843036  0.1013928914780399  0.8606613927803471
  0.0417033385500740  0.4421859545561243  0.8348342658870231
  0.0467000990370429  0.7591635462976497  0.8566920515209611
  0.9478249640608607  0.2590840224481988  0.1244963577829614
  0.9311757585709296  0.5900653499260974  0.1130792890676866
  0.9434062315334504  0.9276488920216960  0.1072196953353667
 
  0.00000000E+00  0.00000000E+00  0.00000000E+00
  0.00000000E+00  0.00000000E+00  0.00000000E+00
  0.00000000E+00  0.00000000E+00  0.00000000E+00
  0.00000000E+00  0.00000000E+00  0.00000000E+00
  0.00000000E+00  0.00000000E+00  0.00000000E+00
  0.00000000E+00  0.00000000E+00  0.00000000E+00
  0.00000000E+00  0.00000000E+00  0.00000000E+00
  0.00000000E+00  0.00000000E+00  0.00000000E+00
  0.00000000E+00  0.00000000E+00  0.00000000E+00
  0.00000000E+00  0.00000000E+00  0.00000000E+00
  0.00000000E+00  0.00000000E+00  0.00000000E+00
  0.00000000E+00  0.00000000E+00  0.00000000E+00
  0.00000000E+00  0.00000000E+00  0.00000000E+00
  0.00000000E+00  0.00000000E+00  0.00000000E+00
  0.00000000E+00  0.00000000E+00  0.00000000E+00
  0.00000000E+00  0.00000000E+00  0.00000000E+00
  0.00000000E+00  0.00000000E+00  0.00000000E+00
  0.00000000E+00  0.00000000E+00  0.00000000E+00
  0.00000000E+00  0.00000000E+00  0.00000000E+00
  0.00000000E+00  0.00000000E+00  0.00000000E+00
  0.00000000E+00  0.00000000E+00  0.00000000E+00
  0.00000000E+00  0.00000000E+00  0.00000000E+00
  0.00000000E+00  0.00000000E+00  0.00000000E+00
  0.00000000E+00  0.00000000E+00  0.00000000E+00
  0.00000000E+00  0.00000000E+00  0.00000000E+00
  0.00000000E+00  0.00000000E+00  0.00000000E+00
  0.00000000E+00  0.00000000E+00  0.00000000E+00
  0.00000000E+00  0.00000000E+00  0.00000000E+00
  0.00000000E+00  0.00000000E+00  0.00000000E+00
  0.00000000E+00  0.00000000E+00  0.00000000E+00
  0.00000000E+00  0.00000000E+00  0.00000000E+00
  0.00000000E+00  0.00000000E+00  0.00000000E+00
  0.00000000E+00  0.00000000E+00  0.00000000E+00
  0.00000000E+00  0.00000000E+00  0.00000000E+00
  0.00000000E+00  0.00000000E+00  0.00000000E+00
  0.00000000E+00  0.00000000E+00  0.00000000E+00
  0.00000000E+00  0.00000000E+00  0.00000000E+00
  0.00000000E+00  0.00000000E+00  0.00000000E+00
  0.00000000E+00  0.00000000E+00  0.00000000E+00
  0.00000000E+00  0.00000000E+00  0.00000000E+00
  0.00000000E+00  0.00000000E+00  0.00000000E+00
  0.00000000E+00  0.00000000E+00  0.00000000E+00
  0.00000000E+00  0.00000000E+00  0.00000000E+00
  0.00000000E+00  0.00000000E+00  0.00000000E+00
  0.00000000E+00  0.00000000E+00  0.00000000E+00
  0.00000000E+00  0.00000000E+00  0.00000000E+00
  0.00000000E+00  0.00000000E+00  0.00000000E+00
  0.00000000E+00  0.00000000E+00  0.00000000E+00
  0.00000000E+00  0.00000000E+00  0.00000000E+00
  0.00000000E+00  0.00000000E+00  0.00000000E+00
  0.00000000E+00  0.00000000E+00  0.00000000E+00
  0.00000000E+00  0.00000000E+00  0.00000000E+00
  0.00000000E+00  0.00000000E+00  0.00000000E+00
  0.00000000E+00  0.00000000E+00  0.00000000E+00
  0.00000000E+00  0.00000000E+00  0.00000000E+00
  0.00000000E+00  0.00000000E+00  0.00000000E+00
  0.00000000E+00  0.00000000E+00  0.00000000E+00
  0.00000000E+00  0.00000000E+00  0.00000000E+00
  0.00000000E+00  0.00000000E+00  0.00000000E+00
  0.00000000E+00  0.00000000E+00  0.00000000E+00
  0.00000000E+00  0.00000000E+00  0.00000000E+00
