Sb2 Se3                                 
  0.99882000000000204     
    11.9454718211925162    0.0000000000000000    0.0000000000000000
     0.0000000000000000   11.9285311965989376    0.0000000000000000
     0.0000000000000000    0.0000000000000000   11.5287107052303703
   Sb   Se
    25    36
Direct
  0.3161530582625699  0.2499998719399980  0.1444756438953560
  0.5416006995761689  0.0796763018006604  0.1721699288325076
  0.5416005252668861  0.4203238781950092  0.1721698867045725
  0.5298857889556535  0.7500000865784506  0.1776032671247867
  0.4770273422450691  0.2500001073668935  0.8267791803413400
  0.4741529756218427  0.5855986032615836  0.8284901658099783
  0.4741528638973397  0.9144014446430005  0.8284900877243077
  0.9716656967569141  0.2499999424291758  0.6675550650525840
  0.9736034561459297  0.5849006987869624  0.6620328569059065
  0.9736035722022707  0.9150991084636334  0.6620328334100251
  0.0261396868831433  0.0857874066663311  0.3366929434347203
  0.0261397008391462  0.4142124789974826  0.3366928416446071
  0.0217531506088513  0.7499998950423675  0.3262854730591679
  0.6469883965893835  0.2500001260465729  0.4657665001533680
  0.6455936113025138  0.5843513779348792  0.4622752916250057
  0.6455936904760577  0.9156487797073984  0.4622754289489869
  0.3549569107203823  0.0820572756610517  0.5409404226721869
  0.3549568925009079  0.4179429851181488  0.5409405182470678
  0.3546605051571369  0.7500000397778764  0.5422069845983072
  0.8460549542580960  0.0804650599676860  0.9600076719737793
  0.8460549143084172  0.4195347062902602  0.9600076863267180
  0.8582312014245443  0.7499998775044365  0.9702472432138358
  0.1105561141396213  0.2499999683024102  0.9979658209640980
  0.1496035173211762  0.5915504807416097  0.0404074321028819
  0.1496034678166378  0.9084492328331822  0.0404072990190554
  0.6323260082125607  0.2500001532910343  0.0506414952717696
  0.6301037244192391  0.5847657345672967  0.0527106371267592
  0.6301037035130596  0.9152344250500628  0.0527105665608539
  0.3743057305188955  0.0842856646045290  0.9408829596427550
  0.3743058622825199  0.4157145181753619  0.9408830881031751
  0.3764448815619754  0.7499999822873055  0.9493861533907560
  0.8723568066315789  0.0828855032666778  0.5534602298974299
  0.8723567172809175  0.4171143003043896  0.5534601836193918
  0.8689501627441323  0.7499999530887984  0.5556541216333080
  0.1266813922996516  0.2499999435655721  0.4541352897823405
  0.1213183023304301  0.5859212535036795  0.4493817103516800
  0.1213182286486143  0.9140786270221103  0.4493817188993064
  0.7161412007212695  0.0844026109190767  0.3098751741944791
  0.7161411142760227  0.4155975653001377  0.3098750794988572
  0.7136767273602994  0.7500000973892109  0.3063581004809944
  0.2930518412379437  0.2500001591396099  0.6938900092453397
  0.2908648382199736  0.5855747378664311  0.6963623428794641
  0.2908647576264149  0.9144253405561182  0.6963622637344137
  0.7901698227376566  0.2499999173382582  0.8059696813630705
  0.7956479128966267  0.5854212696331025  0.8085903322480237
  0.7956479852984967  0.9145785624683668  0.8085902901251850
  0.2213853621349579  0.0665557907518371  0.2212832257297824
  0.2213853639207916  0.4334440685065786  0.2212831790632544
  0.2105132275527969  0.7499998910050728  0.1990336514470993
  0.4447091045124086  0.2500001150341519  0.3790920525980891
  0.4498266270669506  0.5828536214222605  0.3667815907700621
  0.4498267132206591  0.9171466222814112  0.3667816774399943
  0.5550793513507111  0.0813218993163706  0.6295205720197312
  0.5550793407068211  0.4186782887780073  0.6295206131208243
  0.5548483547407579  0.7500000765058432  0.6307162350794611
  0.0534530462818389  0.0808521951441054  0.8691299691568358
  0.0534530192841935  0.4191477509887532  0.8691299911966235
  0.0609518042046075  0.7499998356394858  0.8807023980115902
  0.9453284689532571  0.2499999514045145  0.1326410906530138
  0.9508708944952118  0.5808050263469123  0.1311309543678786
  0.9508709074791488  0.9191948134805347  0.1311308645112787

  0.00000000E+00  0.00000000E+00  0.00000000E+00
  0.00000000E+00  0.00000000E+00  0.00000000E+00
  0.00000000E+00  0.00000000E+00  0.00000000E+00
  0.00000000E+00  0.00000000E+00  0.00000000E+00
  0.00000000E+00  0.00000000E+00  0.00000000E+00
  0.00000000E+00  0.00000000E+00  0.00000000E+00
  0.00000000E+00  0.00000000E+00  0.00000000E+00
  0.00000000E+00  0.00000000E+00  0.00000000E+00
  0.00000000E+00  0.00000000E+00  0.00000000E+00
  0.00000000E+00  0.00000000E+00  0.00000000E+00
  0.00000000E+00  0.00000000E+00  0.00000000E+00
  0.00000000E+00  0.00000000E+00  0.00000000E+00
  0.00000000E+00  0.00000000E+00  0.00000000E+00
  0.00000000E+00  0.00000000E+00  0.00000000E+00
  0.00000000E+00  0.00000000E+00  0.00000000E+00
  0.00000000E+00  0.00000000E+00  0.00000000E+00
  0.00000000E+00  0.00000000E+00  0.00000000E+00
  0.00000000E+00  0.00000000E+00  0.00000000E+00
  0.00000000E+00  0.00000000E+00  0.00000000E+00
  0.00000000E+00  0.00000000E+00  0.00000000E+00
  0.00000000E+00  0.00000000E+00  0.00000000E+00
  0.00000000E+00  0.00000000E+00  0.00000000E+00
  0.00000000E+00  0.00000000E+00  0.00000000E+00
  0.00000000E+00  0.00000000E+00  0.00000000E+00
  0.00000000E+00  0.00000000E+00  0.00000000E+00
  0.00000000E+00  0.00000000E+00  0.00000000E+00
  0.00000000E+00  0.00000000E+00  0.00000000E+00
  0.00000000E+00  0.00000000E+00  0.00000000E+00
  0.00000000E+00  0.00000000E+00  0.00000000E+00
  0.00000000E+00  0.00000000E+00  0.00000000E+00
  0.00000000E+00  0.00000000E+00  0.00000000E+00
  0.00000000E+00  0.00000000E+00  0.00000000E+00
  0.00000000E+00  0.00000000E+00  0.00000000E+00
  0.00000000E+00  0.00000000E+00  0.00000000E+00
  0.00000000E+00  0.00000000E+00  0.00000000E+00
  0.00000000E+00  0.00000000E+00  0.00000000E+00
  0.00000000E+00  0.00000000E+00  0.00000000E+00
  0.00000000E+00  0.00000000E+00  0.00000000E+00
  0.00000000E+00  0.00000000E+00  0.00000000E+00
  0.00000000E+00  0.00000000E+00  0.00000000E+00
  0.00000000E+00  0.00000000E+00  0.00000000E+00
  0.00000000E+00  0.00000000E+00  0.00000000E+00
  0.00000000E+00  0.00000000E+00  0.00000000E+00
  0.00000000E+00  0.00000000E+00  0.00000000E+00
  0.00000000E+00  0.00000000E+00  0.00000000E+00
  0.00000000E+00  0.00000000E+00  0.00000000E+00
  0.00000000E+00  0.00000000E+00  0.00000000E+00
  0.00000000E+00  0.00000000E+00  0.00000000E+00
  0.00000000E+00  0.00000000E+00  0.00000000E+00
  0.00000000E+00  0.00000000E+00  0.00000000E+00
  0.00000000E+00  0.00000000E+00  0.00000000E+00
  0.00000000E+00  0.00000000E+00  0.00000000E+00
  0.00000000E+00  0.00000000E+00  0.00000000E+00
  0.00000000E+00  0.00000000E+00  0.00000000E+00
  0.00000000E+00  0.00000000E+00  0.00000000E+00
  0.00000000E+00  0.00000000E+00  0.00000000E+00
  0.00000000E+00  0.00000000E+00  0.00000000E+00
  0.00000000E+00  0.00000000E+00  0.00000000E+00
  0.00000000E+00  0.00000000E+00  0.00000000E+00
  0.00000000E+00  0.00000000E+00  0.00000000E+00
  0.00000000E+00  0.00000000E+00  0.00000000E+00
