Sb2 Se3                                 
  0.998820000000002     
    11.9454718211925073    0.0000000000000000    0.0000000000000000
     0.0000000000000000   11.9285311965989376    0.0000000000000000
     0.0000000000000000    0.0000000000000000   11.5287107052303703
   Sb   Se
    25    36
Direct
  0.3053879657342221  0.2500002095994736  0.1190475703419726
  0.5323143137061587  0.0900137582968788  0.1873368691988671
  0.5323144255415617  0.4099865081150975  0.1873368155245055
  0.5182676507930628  0.7500001134170756  0.1928305333126438
  0.4754757271571385  0.2499999876918285  0.8460966981647258
  0.5274726552096932  0.6277070550920535  0.8665371984382821
  0.5274727090782594  0.8722929019947748  0.8665371953113596
  0.9716942532711956  0.2499998685789652  0.6649981590045841
  0.9697098286129476  0.5925610203801072  0.6573291397409946
  0.9697099183043482  0.9074388800016081  0.6573288466456876
  0.0296305356796694  0.0870781077411961  0.3272046132219862
  0.0296304066442869  0.4129217289278127  0.3272048579086439
  0.0079692182733013  0.7499998581562449  0.3239103502675759
  0.6500075141660014  0.2500001422319202  0.4754729913439246
  0.6460469094159907  0.5838114415259053  0.4647678076023224
  0.6460469209351138  0.9161888282396170  0.4647677710638002
  0.3530944723593299  0.0761132795397561  0.5496236826771794
  0.3530945179757151  0.4238869119550261  0.5496236479413134
  0.3378181442055020  0.7500000776943380  0.5502183142689893
  0.8525677267459028  0.0860415413367966  0.9636136329620020
  0.8525677614308138  0.4139583062568287  0.9636135475633905
  0.8500662803001430  0.7499999309400760  0.9590201868678122
  0.1477669025168390  0.2499998892480222  0.9364608107325563
  0.1468967391087814  0.5881428654046494  0.0456864561411440
  0.1468967784038985  0.9118569048830961  0.0456863174173063
  0.6301553085493581  0.2500000747746869  0.0532690210675907
  0.6315484731204751  0.5895360856420703  0.0674403312468405
  0.6315484172958703  0.9104640929279270  0.0674403271896476
  0.3690215146234176  0.0870732818421911  0.9474104272028981
  0.3690216192357973  0.4129268254593547  0.9474104134876904
  0.3646989536780930  0.7499999982858283  0.9590853027073806
  0.8714004641174374  0.0829615633231252  0.5552034946176954
  0.8714004929176802  0.4170382499721966  0.5552035790354013
  0.8547465474605893  0.7499999509661099  0.5444401474178402
  0.1298028766725697  0.2499998832725419  0.4495421499344293
  0.1093190567621102  0.5868215520677232  0.4477862548613121
  0.1093190934846535  0.9131782650265038  0.4477860933776425
  0.7178301780174586  0.0840909796434171  0.3078667776380052
  0.7178302364934681  0.4159092099314080  0.3078668527219961
  0.7088924616151384  0.7500000539395919  0.3059129512814815
  0.2950334429427690  0.2500000691002115  0.6942597653330734
  0.2923615662679721  0.5847860130588606  0.6972268366351232
  0.2923614987294010  0.9152141420902314  0.6972268164429634
  0.7916927495963884  0.2499999136243368  0.8062165691056259
  0.7856008101515003  0.5888387854609780  0.8067682824916519
  0.7856009040406711  0.9111610945428249  0.8067683123148393
  0.2222874613340734  0.0550844487407714  0.2213427646502015
  0.2222874290972059  0.4449155523358377  0.2213430670206419
  0.2016886908622370  0.7499999067023478  0.2017764603190596
  0.4595020812912667  0.2500001202842453  0.3668285050409233
  0.4511390506643099  0.5792837629724502  0.3636291645016494
  0.4511390344319556  0.9207163760843562  0.3636291229939870
  0.5576101131923488  0.0822724134423985  0.6261156700652095
  0.5576101278111923  0.4177276989019615  0.6261157253936313
  0.5481655448367800  0.7500001117075704  0.6125776394888158
  0.0421518238599029  0.0567686358283611  0.8551822027424650
  0.0421519023263760  0.4432311707302757  0.8551820699889832
  0.0561064888914676  0.7499998615560967  0.8818336597889675
  0.9761389327982165  0.2499999702347002  0.0921450929448677
  0.9468031699764640  0.5781934143980685  0.1346361074477151
  0.9468032072836302  0.9218063538792707  0.1346359948381027
 
  0.00000000E+00  0.00000000E+00  0.00000000E+00
  0.00000000E+00  0.00000000E+00  0.00000000E+00
  0.00000000E+00  0.00000000E+00  0.00000000E+00
  0.00000000E+00  0.00000000E+00  0.00000000E+00
  0.00000000E+00  0.00000000E+00  0.00000000E+00
  0.00000000E+00  0.00000000E+00  0.00000000E+00
  0.00000000E+00  0.00000000E+00  0.00000000E+00
  0.00000000E+00  0.00000000E+00  0.00000000E+00
  0.00000000E+00  0.00000000E+00  0.00000000E+00
  0.00000000E+00  0.00000000E+00  0.00000000E+00
  0.00000000E+00  0.00000000E+00  0.00000000E+00
  0.00000000E+00  0.00000000E+00  0.00000000E+00
  0.00000000E+00  0.00000000E+00  0.00000000E+00
  0.00000000E+00  0.00000000E+00  0.00000000E+00
  0.00000000E+00  0.00000000E+00  0.00000000E+00
  0.00000000E+00  0.00000000E+00  0.00000000E+00
  0.00000000E+00  0.00000000E+00  0.00000000E+00
  0.00000000E+00  0.00000000E+00  0.00000000E+00
  0.00000000E+00  0.00000000E+00  0.00000000E+00
  0.00000000E+00  0.00000000E+00  0.00000000E+00
  0.00000000E+00  0.00000000E+00  0.00000000E+00
  0.00000000E+00  0.00000000E+00  0.00000000E+00
  0.00000000E+00  0.00000000E+00  0.00000000E+00
  0.00000000E+00  0.00000000E+00  0.00000000E+00
  0.00000000E+00  0.00000000E+00  0.00000000E+00
  0.00000000E+00  0.00000000E+00  0.00000000E+00
  0.00000000E+00  0.00000000E+00  0.00000000E+00
  0.00000000E+00  0.00000000E+00  0.00000000E+00
  0.00000000E+00  0.00000000E+00  0.00000000E+00
  0.00000000E+00  0.00000000E+00  0.00000000E+00
  0.00000000E+00  0.00000000E+00  0.00000000E+00
  0.00000000E+00  0.00000000E+00  0.00000000E+00
  0.00000000E+00  0.00000000E+00  0.00000000E+00
  0.00000000E+00  0.00000000E+00  0.00000000E+00
  0.00000000E+00  0.00000000E+00  0.00000000E+00
  0.00000000E+00  0.00000000E+00  0.00000000E+00
  0.00000000E+00  0.00000000E+00  0.00000000E+00
  0.00000000E+00  0.00000000E+00  0.00000000E+00
  0.00000000E+00  0.00000000E+00  0.00000000E+00
  0.00000000E+00  0.00000000E+00  0.00000000E+00
  0.00000000E+00  0.00000000E+00  0.00000000E+00
  0.00000000E+00  0.00000000E+00  0.00000000E+00
  0.00000000E+00  0.00000000E+00  0.00000000E+00
  0.00000000E+00  0.00000000E+00  0.00000000E+00
  0.00000000E+00  0.00000000E+00  0.00000000E+00
  0.00000000E+00  0.00000000E+00  0.00000000E+00
  0.00000000E+00  0.00000000E+00  0.00000000E+00
  0.00000000E+00  0.00000000E+00  0.00000000E+00
  0.00000000E+00  0.00000000E+00  0.00000000E+00
  0.00000000E+00  0.00000000E+00  0.00000000E+00
  0.00000000E+00  0.00000000E+00  0.00000000E+00
  0.00000000E+00  0.00000000E+00  0.00000000E+00
  0.00000000E+00  0.00000000E+00  0.00000000E+00
  0.00000000E+00  0.00000000E+00  0.00000000E+00
  0.00000000E+00  0.00000000E+00  0.00000000E+00
  0.00000000E+00  0.00000000E+00  0.00000000E+00
  0.00000000E+00  0.00000000E+00  0.00000000E+00
  0.00000000E+00  0.00000000E+00  0.00000000E+00
  0.00000000E+00  0.00000000E+00  0.00000000E+00
  0.00000000E+00  0.00000000E+00  0.00000000E+00
  0.00000000E+00  0.00000000E+00  0.00000000E+00
