Sb2 Se3                                 
  0.99882000000000204     
    11.9454718211925162    0.0000000000000000    0.0000000000000000
     0.0000000000000000   11.9285311965989376    0.0000000000000000
     0.0000000000000000    0.0000000000000000   11.5287107052303703
   Sb   Se
    23    37
Direct
  0.5256215578225901  0.0795411638641618  0.1710195177928312
  0.5331179682589582  0.4124641923824032  0.1734590439101892
  0.5157903752283310  0.7481646814439520  0.1536783509799997
  0.4710544939386561  0.2497219448875762  0.8326666809538258
  0.4752424592497604  0.5788323306527963  0.8234358636181404
  0.4734933929625416  0.9157485457061320  0.8201368026316240
  0.9702208313140147  0.2507502732129891  0.6701407008095938
  0.9693951659929569  0.5829269949249919  0.6710881728270780
  0.9691343585220100  0.9155925046864470  0.6708671923886429
  0.0289005169404288  0.0831240114215810  0.3269186562171526
  0.0316062898017024  0.4167265161966187  0.3280278266636633
  0.0304997229715951  0.7490520254283944  0.3301285282603518
  0.6488539826749977  0.2597641726069451  0.4576307097327678
  0.6401641095829262  0.9258746040114134  0.4704597019997990
  0.3543689582892352  0.0842718129479039  0.5321260869459479
  0.3570942489996951  0.4142037790442180  0.5475621713190588
  0.3519330970183830  0.7517255901490467  0.5481307229791403
  0.8556277871087777  0.0844088180824979  0.9633615437352527
  0.8557951285868869  0.4160435003059316  0.9634471749929856
  0.8557346924530498  0.7494352446669331  0.9628853790563278
  0.1482596829613184  0.2479574378530666  0.0359044845032173
  0.1474096731821128  0.5822877979677681  0.0380773078256193
  0.1469358562569625  0.9163360791243911  0.0370648535066630
  0.6254257272373503  0.2426458212907605  0.0527843367603961
  0.6288190076529253  0.5819611098127558  0.0572599512154022
  0.6312910853408387  0.9135120726555070  0.0597453523047988
  0.3709843078529944  0.0835959136185578  0.9462295730153734
  0.3750082853625568  0.4155790875804593  0.9477089979185119
  0.3772129257082529  0.7492125665518908  0.9445383324579131
  0.8711411871573901  0.0827949008196067  0.5550015930071122
  0.8716167720249876  0.4160783710045521  0.5543333334360316
  0.8716831890511814  0.7488735789022433  0.5544168293234857
  0.1267989956457471  0.2490789828075772  0.4455884852081796
  0.1298716844628167  0.5831914939380991  0.4458285418453967
  0.1268094075065310  0.9167012500848539  0.4463212082330505
  0.7062997094163551  0.0815744714180843  0.3103309033365390
  0.7186093840970895  0.4032130367991580  0.2959903604785080
  0.7006758597636841  0.7532327110896229  0.3039113316307557
  0.2900184159506610  0.2502229569850798  0.6945917250704904
  0.2883361628789853  0.5818370304562331  0.7007016270728865
  0.2867519009456746  0.9184737397084384  0.6960994618832473
  0.7905802551275358  0.2497247642657077  0.8078092336479868
  0.7903149539924179  0.5827140094737896  0.8083283018331072
  0.7897789962253868  0.9164565620712631  0.8080057731921942
  0.2104470575574848  0.0826383023238279  0.1938163978659926
  0.2121997827556882  0.4163385882614514  0.1934568236380743
  0.2110148467324912  0.7492575313149825  0.1939042059420999
  0.4467543913612353  0.2504535101061352  0.3726244843122121
  0.4530283576789432  0.5855303323716895  0.3675649060699470
  0.4429050112492636  0.9155435337563371  0.3772303525022087
  0.5509768669839705  0.0839093321524218  0.6295408687711875
  0.5554947846882173  0.4205767296928611  0.6323572237226415
  0.5478414094156104  0.7543275888346515  0.6431777719417173
  0.0542175251022040  0.0827224811797264  0.8723594439442216
  0.0535236115975169  0.4156761502702316  0.8717998838589919
  0.0537006940352007  0.7496108729798860  0.8709447075641829
  0.9495669231412255  0.2496019898044673  0.1293987206299995
  0.9487974629797016  0.5829170109354430  0.1292513965418892
  0.9486294298901228  0.9162283379203227  0.1295936596210411
  0.6366192813118643  0.6090392551931665  0.4292363935523320

  0.00000000E+00  0.00000000E+00  0.00000000E+00
  0.00000000E+00  0.00000000E+00  0.00000000E+00
  0.00000000E+00  0.00000000E+00  0.00000000E+00
  0.00000000E+00  0.00000000E+00  0.00000000E+00
  0.00000000E+00  0.00000000E+00  0.00000000E+00
  0.00000000E+00  0.00000000E+00  0.00000000E+00
  0.00000000E+00  0.00000000E+00  0.00000000E+00
  0.00000000E+00  0.00000000E+00  0.00000000E+00
  0.00000000E+00  0.00000000E+00  0.00000000E+00
  0.00000000E+00  0.00000000E+00  0.00000000E+00
  0.00000000E+00  0.00000000E+00  0.00000000E+00
  0.00000000E+00  0.00000000E+00  0.00000000E+00
  0.00000000E+00  0.00000000E+00  0.00000000E+00
  0.00000000E+00  0.00000000E+00  0.00000000E+00
  0.00000000E+00  0.00000000E+00  0.00000000E+00
  0.00000000E+00  0.00000000E+00  0.00000000E+00
  0.00000000E+00  0.00000000E+00  0.00000000E+00
  0.00000000E+00  0.00000000E+00  0.00000000E+00
  0.00000000E+00  0.00000000E+00  0.00000000E+00
  0.00000000E+00  0.00000000E+00  0.00000000E+00
  0.00000000E+00  0.00000000E+00  0.00000000E+00
  0.00000000E+00  0.00000000E+00  0.00000000E+00
  0.00000000E+00  0.00000000E+00  0.00000000E+00
  0.00000000E+00  0.00000000E+00  0.00000000E+00
  0.00000000E+00  0.00000000E+00  0.00000000E+00
  0.00000000E+00  0.00000000E+00  0.00000000E+00
  0.00000000E+00  0.00000000E+00  0.00000000E+00
  0.00000000E+00  0.00000000E+00  0.00000000E+00
  0.00000000E+00  0.00000000E+00  0.00000000E+00
  0.00000000E+00  0.00000000E+00  0.00000000E+00
  0.00000000E+00  0.00000000E+00  0.00000000E+00
  0.00000000E+00  0.00000000E+00  0.00000000E+00
  0.00000000E+00  0.00000000E+00  0.00000000E+00
  0.00000000E+00  0.00000000E+00  0.00000000E+00
  0.00000000E+00  0.00000000E+00  0.00000000E+00
  0.00000000E+00  0.00000000E+00  0.00000000E+00
  0.00000000E+00  0.00000000E+00  0.00000000E+00
  0.00000000E+00  0.00000000E+00  0.00000000E+00
  0.00000000E+00  0.00000000E+00  0.00000000E+00
  0.00000000E+00  0.00000000E+00  0.00000000E+00
  0.00000000E+00  0.00000000E+00  0.00000000E+00
  0.00000000E+00  0.00000000E+00  0.00000000E+00
  0.00000000E+00  0.00000000E+00  0.00000000E+00
  0.00000000E+00  0.00000000E+00  0.00000000E+00
  0.00000000E+00  0.00000000E+00  0.00000000E+00
  0.00000000E+00  0.00000000E+00  0.00000000E+00
  0.00000000E+00  0.00000000E+00  0.00000000E+00
  0.00000000E+00  0.00000000E+00  0.00000000E+00
  0.00000000E+00  0.00000000E+00  0.00000000E+00
  0.00000000E+00  0.00000000E+00  0.00000000E+00
  0.00000000E+00  0.00000000E+00  0.00000000E+00
  0.00000000E+00  0.00000000E+00  0.00000000E+00
  0.00000000E+00  0.00000000E+00  0.00000000E+00
  0.00000000E+00  0.00000000E+00  0.00000000E+00
  0.00000000E+00  0.00000000E+00  0.00000000E+00
  0.00000000E+00  0.00000000E+00  0.00000000E+00
  0.00000000E+00  0.00000000E+00  0.00000000E+00
  0.00000000E+00  0.00000000E+00  0.00000000E+00
  0.00000000E+00  0.00000000E+00  0.00000000E+00
  0.00000000E+00  0.00000000E+00  0.00000000E+00
