Sb2 Se3                                 
  0.99882000000000204     
    11.9454718211925162    0.0000000000000000    0.0000000000000000
     0.0000000000000000   11.9285311965989376    0.0000000000000000
     0.0000000000000000    0.0000000000000000   11.5287107052303703
   Sb   Se
    23    37
Direct
  0.5322667467758431  0.0834079602794048  0.1791349776960427
  0.5181076212063902  0.4169202239679961  0.1557027575995210
  0.5180741560225165  0.7500006663105359  0.1556455219026239
  0.4742120608797376  0.2493679388571515  0.8291408546230725
  0.4770311374304891  0.5834229521859169  0.8225091145049794
  0.4741413191442754  0.9173967356360055  0.8290706808073897
  0.9723344218867161  0.2508726147887688  0.6689804401786319
  0.9719462163683835  0.5832571557711712  0.6692396688666991
  0.9722879420045528  0.9156343441346392  0.6689423749135686
  0.0278234678851230  0.0832650243804393  0.3285352879723052
  0.0292876441646806  0.4170924267166463  0.3312626654806290
  0.0292437044294624  0.7494387377541271  0.3312798025598365
  0.6402360563467513  0.2511123516228633  0.4713852595043461
  0.6403182410494688  0.9158166332027537  0.4711966999099301
  0.3544413925524175  0.0833578429286783  0.5297246893476297
  0.3542387873414356  0.4142173238937650  0.5491224033047490
  0.3542658248918799  0.7525076385647987  0.5492078114119164
  0.8579177021007545  0.0832638508429047  0.9608167205309021
  0.8582018923131264  0.4163668320162500  0.9594540533372325
  0.8581365938661757  0.7501471560322096  0.9593977778609588
  0.1449819319826462  0.2492987020872756  0.0396182406236472
  0.1444418233037625  0.5832718070745260  0.0412339261789848
  0.1448995399275723  0.9172213878251665  0.0396417413346104
  0.6330648649962415  0.2515750383767807  0.0623261940251229
  0.6248287381716561  0.5834653472251213  0.0486977423835249
  0.6329313695474386  0.9152890405653805  0.0620590026334307
  0.3763900886551698  0.0834403876760473  0.9489231867225739
  0.3770789597244627  0.4159341690381095  0.9459525014950545
  0.3770176964316406  0.7507775451748924  0.9458824806451759
  0.8727638498640041  0.0832746372115183  0.5537354752378730
  0.8730683393488100  0.4166870604477213  0.5527225573639415
  0.8730413382568283  0.7497895738131194  0.5526917813995794
  0.1268331644772665  0.2494486772463082  0.4476383516898558
  0.1297714756200497  0.5832796916862341  0.4468804504726447
  0.1268092792162717  0.9170664542727118  0.4476298569005375
  0.7107830616510364  0.0832923699327960  0.3150557033104443
  0.7022716804487499  0.4269486380246383  0.3035313029404387
  0.7022842302746529  0.7399955799105428  0.3034164349452841
  0.2920051650084846  0.2481628919102404  0.6967289472155105
  0.2884097723614146  0.5833122381688463  0.7010347928059135
  0.2918883885881750  0.9185843865920895  0.6967415997114271
  0.7913908877496523  0.2498482973223579  0.8059659426854241
  0.7914768169012533  0.5832752975107423  0.8056787331912876
  0.7913579239990407  0.9166781691729035  0.8059380549145126
  0.2102717718384813  0.0832810817784646  0.1953223858788123
  0.2107802906126559  0.4167727620869531  0.1954696178141370
  0.2107560514800079  0.7497507689068990  0.1954769181590850
  0.4443122744459416  0.2507547789099560  0.3734713475273604
  0.4421425997093513  0.5834914585934589  0.3639148275553392
  0.4442846165269762  0.9159344085154852  0.3735174133473687
  0.5546090167809316  0.0834027976923882  0.6250261151766984
  0.5543172766164863  0.4185850615041802  0.6337367417479954
  0.5542578124407799  0.7481354074758222  0.6339870867154831
  0.0569557818209031  0.0832802833956647  0.8713411490297703
  0.0569191627084798  0.4163786803771178  0.8691823396985612
  0.0568909770060406  0.7501331632612648  0.8691987750542998
  0.9459856185901628  0.2498241512543329  0.1311967371316647
  0.9459372258949579  0.5832927147076711  0.1315406921070903
  0.9459390820074486  0.9166953043860756  0.1312443247829762
  0.6313371263539344  0.5835033790011743  0.4168989321335777

  0.00000000E+00  0.00000000E+00  0.00000000E+00
  0.00000000E+00  0.00000000E+00  0.00000000E+00
  0.00000000E+00  0.00000000E+00  0.00000000E+00
  0.00000000E+00  0.00000000E+00  0.00000000E+00
  0.00000000E+00  0.00000000E+00  0.00000000E+00
  0.00000000E+00  0.00000000E+00  0.00000000E+00
  0.00000000E+00  0.00000000E+00  0.00000000E+00
  0.00000000E+00  0.00000000E+00  0.00000000E+00
  0.00000000E+00  0.00000000E+00  0.00000000E+00
  0.00000000E+00  0.00000000E+00  0.00000000E+00
  0.00000000E+00  0.00000000E+00  0.00000000E+00
  0.00000000E+00  0.00000000E+00  0.00000000E+00
  0.00000000E+00  0.00000000E+00  0.00000000E+00
  0.00000000E+00  0.00000000E+00  0.00000000E+00
  0.00000000E+00  0.00000000E+00  0.00000000E+00
  0.00000000E+00  0.00000000E+00  0.00000000E+00
  0.00000000E+00  0.00000000E+00  0.00000000E+00
  0.00000000E+00  0.00000000E+00  0.00000000E+00
  0.00000000E+00  0.00000000E+00  0.00000000E+00
  0.00000000E+00  0.00000000E+00  0.00000000E+00
  0.00000000E+00  0.00000000E+00  0.00000000E+00
  0.00000000E+00  0.00000000E+00  0.00000000E+00
  0.00000000E+00  0.00000000E+00  0.00000000E+00
  0.00000000E+00  0.00000000E+00  0.00000000E+00
  0.00000000E+00  0.00000000E+00  0.00000000E+00
  0.00000000E+00  0.00000000E+00  0.00000000E+00
  0.00000000E+00  0.00000000E+00  0.00000000E+00
  0.00000000E+00  0.00000000E+00  0.00000000E+00
  0.00000000E+00  0.00000000E+00  0.00000000E+00
  0.00000000E+00  0.00000000E+00  0.00000000E+00
  0.00000000E+00  0.00000000E+00  0.00000000E+00
  0.00000000E+00  0.00000000E+00  0.00000000E+00
  0.00000000E+00  0.00000000E+00  0.00000000E+00
  0.00000000E+00  0.00000000E+00  0.00000000E+00
  0.00000000E+00  0.00000000E+00  0.00000000E+00
  0.00000000E+00  0.00000000E+00  0.00000000E+00
  0.00000000E+00  0.00000000E+00  0.00000000E+00
  0.00000000E+00  0.00000000E+00  0.00000000E+00
  0.00000000E+00  0.00000000E+00  0.00000000E+00
  0.00000000E+00  0.00000000E+00  0.00000000E+00
  0.00000000E+00  0.00000000E+00  0.00000000E+00
  0.00000000E+00  0.00000000E+00  0.00000000E+00
  0.00000000E+00  0.00000000E+00  0.00000000E+00
  0.00000000E+00  0.00000000E+00  0.00000000E+00
  0.00000000E+00  0.00000000E+00  0.00000000E+00
  0.00000000E+00  0.00000000E+00  0.00000000E+00
  0.00000000E+00  0.00000000E+00  0.00000000E+00
  0.00000000E+00  0.00000000E+00  0.00000000E+00
  0.00000000E+00  0.00000000E+00  0.00000000E+00
  0.00000000E+00  0.00000000E+00  0.00000000E+00
  0.00000000E+00  0.00000000E+00  0.00000000E+00
  0.00000000E+00  0.00000000E+00  0.00000000E+00
  0.00000000E+00  0.00000000E+00  0.00000000E+00
  0.00000000E+00  0.00000000E+00  0.00000000E+00
  0.00000000E+00  0.00000000E+00  0.00000000E+00
  0.00000000E+00  0.00000000E+00  0.00000000E+00
  0.00000000E+00  0.00000000E+00  0.00000000E+00
  0.00000000E+00  0.00000000E+00  0.00000000E+00
  0.00000000E+00  0.00000000E+00  0.00000000E+00
  0.00000000E+00  0.00000000E+00  0.00000000E+00
