Sb Se 
1.0
       11.9313764572         0.0000000000         0.0000000000
        0.0000000000        11.9144554138         0.0000000000
        0.0000000000         0.0000000000        11.5151071548
   Sb   Se
   23   37
Direct
     0.532344282         0.083399527         0.179757789
     0.518073559         0.417019486         0.156012446
     0.517998099         0.749963760         0.155883044
     0.473738313         0.249192253         0.828572392
     0.476671726         0.583440840         0.822164297
     0.473714858         0.917560160         0.828401387
     0.970655799         0.250880957         0.670170069
     0.970050752         0.583252847         0.670416713
     0.970613956         0.915586054         0.670086682
     0.029475227         0.083265238         0.328256637
     0.031075209         0.417090803         0.330848873
     0.031061798         0.749413192         0.330833226
     0.641214371         0.251213312         0.471980840
     0.641351044         0.915896654         0.471723825
     0.354162812         0.083358407         0.528820932
     0.353832632         0.414206922         0.547948003
     0.353897959         0.752547204         0.548013151
     0.856794715         0.083231665         0.962209940
     0.856979907         0.416353881         0.961206913
     0.856928825         0.750118196         0.961171329
     0.145791233         0.249292135         0.038703941
     0.145411551         0.583260417         0.039918866
     0.145714954         0.917231202         0.038689177
     0.632672191         0.251691729         0.062439714
     0.624690711         0.583495438         0.049301323
     0.632505417         0.915184915         0.062056743
     0.375910521         0.083423033         0.947825372
     0.376993418         0.415836900         0.945445895
     0.376931399         0.750863492         0.945299983
     0.872500300         0.083248451         0.553951442
     0.872692287         0.416670293         0.552930176
     0.872668803         0.749769866         0.552852869
     0.127417818         0.249388650         0.447949797
     0.130486205         0.583260417         0.446930289
     0.127410278         0.917117834         0.447900325
     0.710883617         0.083242580         0.314741313
     0.702460468         0.426708549         0.303507388
     0.702434480         0.740334272         0.303329378
     0.291898429         0.248342022         0.695937097
     0.288513243         0.583290637         0.700423360
     0.291772723         0.918417156         0.695941389
     0.790353894         0.249876291         0.807076275
     0.790343046         0.583277166         0.806899130
     0.790345550         0.916586637         0.807039857
     0.211177647         0.083290420         0.194739833
     0.211750925         0.416702211         0.194735482
     0.211756796         0.749779940         0.194712043
     0.445407122         0.250706375         0.373788983
     0.442992479         0.583521426         0.364354402
     0.445362687         0.915973008         0.373880178
     0.554299891         0.083416320         0.624715865
     0.554005682         0.418662876         0.632240772
     0.553913474         0.748056829         0.632589877
     0.055395957         0.083252646         0.872092664
     0.055299573         0.416416019         0.870295882
     0.055299573         0.750067890         0.870349705
     0.947186649         0.249746203         0.130809024
     0.947383583         0.583271265         0.131089538
     0.947173178         0.916751921         0.130872428
     0.632158458         0.583581865         0.417164177
