Sb2 Se3                                 
  0.99882000000000204     
    11.9454718211925162    0.0000000000000000    0.0000000000000000
     0.0000000000000000   11.9285311965989376    0.0000000000000000
     0.0000000000000000    0.0000000000000000   11.5287107052303703
   Sb   Se
    23    37
Direct
  0.5316895695706733  0.0834101400932271  0.1806020891898272
  0.5162461454057726  0.4170435618232571  0.1562316267716639
  0.5163138492129761  0.7498998664339989  0.1562164665107275
  0.4746942987935048  0.2491229740838881  0.8275471848464447
  0.4773226022425962  0.5834736365370012  0.8212865822286793
  0.4746829831733111  0.9177111513113159  0.8274494567333726
  0.9686256214413993  0.2509053134688256  0.6712165444132326
  0.9676731033108185  0.5832336913195267  0.6712710404582874
  0.9686449356553901  0.9155152798031281  0.6711313975371815
  0.0319650715343487  0.0832335720725117  0.3276856471602072
  0.0334104608131536  0.4169984316987814  0.3300102637055558
  0.0334351607863325  0.7494657697722833  0.3299723672263957
  0.6422568364905160  0.2513791526991233  0.4720433837158500
  0.6423787693863776  0.9158103814430225  0.4719205826012905
  0.3538398197703618  0.0833801442798378  0.5284180170579785
  0.3528991659427512  0.4138964699564139  0.5470968535426115
  0.3529335238184437  0.7528905842259331  0.5472048322818166
  0.8560112108879347  0.0831907187290050  0.9643165108036217
  0.8558278615421676  0.4163194288473901  0.9633121893148971
  0.8557956880827040  0.7500923493534459  0.9632768918551043
  0.1470278072265005  0.2492853257767144  0.0369539355866020
  0.1463818696819627  0.5832260937966903  0.0376155427886487
  0.1469918017168884  0.9171920493924157  0.0369310221368770
  0.6322728162573404  0.2522388456852489  0.0640079182745479
  0.6236105258638913  0.5834553640489787  0.0508380930263318
  0.6322004419112375  0.9146653248279757  0.0637602213522314
  0.3771190580009313  0.0834621709543000  0.9467343281533712
  0.3772130673540429  0.4156688021042304  0.9438461141800591
  0.3772060054683021  0.7511140145565036  0.9437603772316515
  0.8717417813296017  0.0832082417669744  0.5544921536767865
  0.8717133089582574  0.4165842500865737  0.5531698069049767
  0.8717299686907362  0.7498333719472056  0.5530935517657453
  0.1287106516068337  0.2493386707824479  0.4478780348710536
  0.1316436592225926  0.5832434858588059  0.4465268821962897
  0.1287495684305479  0.9171198885229330  0.4478144096859620
  0.7107763047244285  0.0833617452612518  0.3144633703378129
  0.7010437813104941  0.4265501254598035  0.3034311218760118
  0.7010971079709056  0.7404529792449720  0.3033318694402433
  0.2923614957724826  0.2480728319474803  0.6959265318218144
  0.2889323863564742  0.5833343938139631  0.7000904905592363
  0.2922733503088888  0.9187444504860502  0.6959614155752624
  0.7894342862025010  0.2499147533321225  0.8087504962389858
  0.7891740142171866  0.5832586003310744  0.8085305753213162
  0.7894743336765978  0.9164913158419387  0.8087091750115752
  0.2125235348338957  0.0832672810503933  0.1934285383336783
  0.2129225609390225  0.4166060785554299  0.1932164918466971
  0.2129580316977748  0.7498346016422069  0.1931738103939636
  0.4460576202895516  0.2506845228401770  0.3742685404084960
  0.4425175434944354  0.5835441972855097  0.3658229958989291
  0.4460800023596064  0.9160771562936001  0.3743508157809263
  0.5542376873295310  0.0834594961334369  0.6243844780711191
  0.5534162902501543  0.4188569867917587  0.6308679543382910
  0.5533521141470672  0.7479537419453471  0.6311468475550052
  0.0537074919872345  0.0832420042089934  0.8727545516755824
  0.0535624750147606  0.4164789694033666  0.8714479877117358
  0.0535777423360148  0.7499534150517539  0.8714978227420678
  0.9491084769735637  0.2496525993138315  0.1300937801526854
  0.9493312216662714  0.5832436438237723  0.1305052724412152
  0.9491205232851778  0.9167986052647051  0.1301211410844214
  0.6320006132747629  0.5835569866171233  0.4180915725970325

  0.00000000E+00  0.00000000E+00  0.00000000E+00
  0.00000000E+00  0.00000000E+00  0.00000000E+00
  0.00000000E+00  0.00000000E+00  0.00000000E+00
  0.00000000E+00  0.00000000E+00  0.00000000E+00
  0.00000000E+00  0.00000000E+00  0.00000000E+00
  0.00000000E+00  0.00000000E+00  0.00000000E+00
  0.00000000E+00  0.00000000E+00  0.00000000E+00
  0.00000000E+00  0.00000000E+00  0.00000000E+00
  0.00000000E+00  0.00000000E+00  0.00000000E+00
  0.00000000E+00  0.00000000E+00  0.00000000E+00
  0.00000000E+00  0.00000000E+00  0.00000000E+00
  0.00000000E+00  0.00000000E+00  0.00000000E+00
  0.00000000E+00  0.00000000E+00  0.00000000E+00
  0.00000000E+00  0.00000000E+00  0.00000000E+00
  0.00000000E+00  0.00000000E+00  0.00000000E+00
  0.00000000E+00  0.00000000E+00  0.00000000E+00
  0.00000000E+00  0.00000000E+00  0.00000000E+00
  0.00000000E+00  0.00000000E+00  0.00000000E+00
  0.00000000E+00  0.00000000E+00  0.00000000E+00
  0.00000000E+00  0.00000000E+00  0.00000000E+00
  0.00000000E+00  0.00000000E+00  0.00000000E+00
  0.00000000E+00  0.00000000E+00  0.00000000E+00
  0.00000000E+00  0.00000000E+00  0.00000000E+00
  0.00000000E+00  0.00000000E+00  0.00000000E+00
  0.00000000E+00  0.00000000E+00  0.00000000E+00
  0.00000000E+00  0.00000000E+00  0.00000000E+00
  0.00000000E+00  0.00000000E+00  0.00000000E+00
  0.00000000E+00  0.00000000E+00  0.00000000E+00
  0.00000000E+00  0.00000000E+00  0.00000000E+00
  0.00000000E+00  0.00000000E+00  0.00000000E+00
  0.00000000E+00  0.00000000E+00  0.00000000E+00
  0.00000000E+00  0.00000000E+00  0.00000000E+00
  0.00000000E+00  0.00000000E+00  0.00000000E+00
  0.00000000E+00  0.00000000E+00  0.00000000E+00
  0.00000000E+00  0.00000000E+00  0.00000000E+00
  0.00000000E+00  0.00000000E+00  0.00000000E+00
  0.00000000E+00  0.00000000E+00  0.00000000E+00
  0.00000000E+00  0.00000000E+00  0.00000000E+00
  0.00000000E+00  0.00000000E+00  0.00000000E+00
  0.00000000E+00  0.00000000E+00  0.00000000E+00
  0.00000000E+00  0.00000000E+00  0.00000000E+00
  0.00000000E+00  0.00000000E+00  0.00000000E+00
  0.00000000E+00  0.00000000E+00  0.00000000E+00
  0.00000000E+00  0.00000000E+00  0.00000000E+00
  0.00000000E+00  0.00000000E+00  0.00000000E+00
  0.00000000E+00  0.00000000E+00  0.00000000E+00
  0.00000000E+00  0.00000000E+00  0.00000000E+00
  0.00000000E+00  0.00000000E+00  0.00000000E+00
  0.00000000E+00  0.00000000E+00  0.00000000E+00
  0.00000000E+00  0.00000000E+00  0.00000000E+00
  0.00000000E+00  0.00000000E+00  0.00000000E+00
  0.00000000E+00  0.00000000E+00  0.00000000E+00
  0.00000000E+00  0.00000000E+00  0.00000000E+00
  0.00000000E+00  0.00000000E+00  0.00000000E+00
  0.00000000E+00  0.00000000E+00  0.00000000E+00
  0.00000000E+00  0.00000000E+00  0.00000000E+00
  0.00000000E+00  0.00000000E+00  0.00000000E+00
  0.00000000E+00  0.00000000E+00  0.00000000E+00
  0.00000000E+00  0.00000000E+00  0.00000000E+00
  0.00000000E+00  0.00000000E+00  0.00000000E+00
