Sb2 Se3                                 
  0.998820000000002     
    11.9454718211925162    0.0000000000000000    0.0000000000000000
     0.0000000000000000   11.9285311965989376    0.0000000000000000
     0.0000000000000000    0.0000000000000000   11.5287107052303703
   Sb   Se
    23    37
Direct
  0.5140242380863166  0.0800992485078555  0.1489633139729201
  0.5387457587161099  0.4137292277980820  0.1837796556253029
  0.5138892741615793  0.7478505875885576  0.1511885501169208
  0.4700212464656658  0.2510631103990532  0.8317140844083342
  0.4719580161148104  0.5761864785213915  0.8238011455155747
  0.4720398973764180  0.9106383154466543  0.8160137745137362
  0.9716309657148511  0.2512882937787923  0.6706439918982990
  0.9697231948195690  0.5821617936855689  0.6710242131448559
  0.9688998548598585  0.9159912432257100  0.6721774834796292
  0.0264469367994389  0.0833570917049520  0.3279724635136547
  0.0316901117421728  0.4168283581798283  0.3284793454667122
  0.0290697428761183  0.7487911823186453  0.3312144332008884
  0.6524195000282548  0.2522204453088476  0.4488856657494056
  0.6433132629267327  0.9234032729260720  0.4557883698359401
  0.3565452297218918  0.0849661106722440  0.5341805045966884
  0.3605884104113203  0.4152202821154676  0.5496155971433763
  0.3524739495145968  0.7527094755218627  0.5492457062973070
  0.8546067325104660  0.0864593941725451  0.9646870234959941
  0.8562963215165285  0.4165578312878968  0.9651243215505522
  0.8553264139991571  0.7495222254504205  0.9633734422992721
  0.1497937341962219  0.2449847800602231  0.0360826079756681
  0.1485162314906259  0.5802455560986887  0.0388123734476787
  0.1466273264264878  0.9141999166852218  0.0383290786543308
  0.6237604815518937  0.2376187897320132  0.0439317912345243
  0.6296695025318980  0.5818868226102407  0.0602934440765742
  0.6290929690239501  0.9134295306181182  0.0546041772579708
  0.3652090700288171  0.0880175644532241  0.9492590686767786
  0.3731675530602101  0.4147369881206244  0.9498974195635603
  0.3737312674218227  0.7500144732782008  0.9484149254062323
  0.8717274392146013  0.0835260650935481  0.5561574472774838
  0.8711739631610212  0.4160309438131068  0.5555883176467761
  0.8717143842666042  0.7489255426898549  0.5556396261972989
  0.1262270471925291  0.2491747427841187  0.4456893562732448
  0.1294263861140247  0.5831889411574289  0.4471832938606889
  0.1254575039973499  0.9163735731677072  0.4465437918049905
  0.7025207268110221  0.0806226379903320  0.3043038245066017
  0.7260839791247821  0.3916856260848631  0.2912787241699647
  0.7065680315503490  0.7646708982118795  0.2947952029118236
  0.2871577371888472  0.2516006369367573  0.6933309921715963
  0.2854675406480037  0.5820566056783288  0.7021001586552589
  0.2826438062051150  0.9193042751348093  0.6963616595803012
  0.7917260384070139  0.2497871258925346  0.8082176627311976
  0.7904775664862759  0.5828506181667805  0.8092425605749742
  0.7895382809373594  0.9168139041806389  0.8086505359467924
  0.2087040152411681  0.0820655779078785  0.1955483568911446
  0.2126523542389587  0.4160112155840691  0.1946368359630608
  0.2100258689602003  0.7481976523623277  0.1954674852370675
  0.4461520386631955  0.2511127092315187  0.3752798560051596
  0.4686987745481947  0.5842682646059826  0.3670712797706404
  0.4404467348697557  0.9135128529455123  0.3782951447385980
  0.5503923690316711  0.0821171281201494  0.6319022660090643
  0.5547412486352886  0.4218063254246369  0.6422274468067610
  0.5432415951608867  0.7566653550032939  0.6555410584067493
  0.0542874121441635  0.0823337099344406  0.8735785144984923
  0.0536278357070141  0.4157348182197396  0.8728004489897961
  0.0536090889023110  0.7498227515685372  0.8722113140175575
  0.9499431318807543  0.2497659451402774  0.1300529250353297
  0.9487833663637532  0.5824518873164001  0.1292035586975675
  0.9481210349259538  0.9158309865632006  0.1314290342133032
  0.6493855053280612  0.6275122928224252  0.4321733152920174
 
  0.00000000E+00  0.00000000E+00  0.00000000E+00
  0.00000000E+00  0.00000000E+00  0.00000000E+00
  0.00000000E+00  0.00000000E+00  0.00000000E+00
  0.00000000E+00  0.00000000E+00  0.00000000E+00
  0.00000000E+00  0.00000000E+00  0.00000000E+00
  0.00000000E+00  0.00000000E+00  0.00000000E+00
  0.00000000E+00  0.00000000E+00  0.00000000E+00
  0.00000000E+00  0.00000000E+00  0.00000000E+00
  0.00000000E+00  0.00000000E+00  0.00000000E+00
  0.00000000E+00  0.00000000E+00  0.00000000E+00
  0.00000000E+00  0.00000000E+00  0.00000000E+00
  0.00000000E+00  0.00000000E+00  0.00000000E+00
  0.00000000E+00  0.00000000E+00  0.00000000E+00
  0.00000000E+00  0.00000000E+00  0.00000000E+00
  0.00000000E+00  0.00000000E+00  0.00000000E+00
  0.00000000E+00  0.00000000E+00  0.00000000E+00
  0.00000000E+00  0.00000000E+00  0.00000000E+00
  0.00000000E+00  0.00000000E+00  0.00000000E+00
  0.00000000E+00  0.00000000E+00  0.00000000E+00
  0.00000000E+00  0.00000000E+00  0.00000000E+00
  0.00000000E+00  0.00000000E+00  0.00000000E+00
  0.00000000E+00  0.00000000E+00  0.00000000E+00
  0.00000000E+00  0.00000000E+00  0.00000000E+00
  0.00000000E+00  0.00000000E+00  0.00000000E+00
  0.00000000E+00  0.00000000E+00  0.00000000E+00
  0.00000000E+00  0.00000000E+00  0.00000000E+00
  0.00000000E+00  0.00000000E+00  0.00000000E+00
  0.00000000E+00  0.00000000E+00  0.00000000E+00
  0.00000000E+00  0.00000000E+00  0.00000000E+00
  0.00000000E+00  0.00000000E+00  0.00000000E+00
  0.00000000E+00  0.00000000E+00  0.00000000E+00
  0.00000000E+00  0.00000000E+00  0.00000000E+00
  0.00000000E+00  0.00000000E+00  0.00000000E+00
  0.00000000E+00  0.00000000E+00  0.00000000E+00
  0.00000000E+00  0.00000000E+00  0.00000000E+00
  0.00000000E+00  0.00000000E+00  0.00000000E+00
  0.00000000E+00  0.00000000E+00  0.00000000E+00
  0.00000000E+00  0.00000000E+00  0.00000000E+00
  0.00000000E+00  0.00000000E+00  0.00000000E+00
  0.00000000E+00  0.00000000E+00  0.00000000E+00
  0.00000000E+00  0.00000000E+00  0.00000000E+00
  0.00000000E+00  0.00000000E+00  0.00000000E+00
  0.00000000E+00  0.00000000E+00  0.00000000E+00
  0.00000000E+00  0.00000000E+00  0.00000000E+00
  0.00000000E+00  0.00000000E+00  0.00000000E+00
  0.00000000E+00  0.00000000E+00  0.00000000E+00
  0.00000000E+00  0.00000000E+00  0.00000000E+00
  0.00000000E+00  0.00000000E+00  0.00000000E+00
  0.00000000E+00  0.00000000E+00  0.00000000E+00
  0.00000000E+00  0.00000000E+00  0.00000000E+00
  0.00000000E+00  0.00000000E+00  0.00000000E+00
  0.00000000E+00  0.00000000E+00  0.00000000E+00
  0.00000000E+00  0.00000000E+00  0.00000000E+00
  0.00000000E+00  0.00000000E+00  0.00000000E+00
  0.00000000E+00  0.00000000E+00  0.00000000E+00
  0.00000000E+00  0.00000000E+00  0.00000000E+00
  0.00000000E+00  0.00000000E+00  0.00000000E+00
  0.00000000E+00  0.00000000E+00  0.00000000E+00
  0.00000000E+00  0.00000000E+00  0.00000000E+00
  0.00000000E+00  0.00000000E+00  0.00000000E+00
