Sb2 Se3                                 
  0.998820000000002     
    11.9454718211925126    0.0000000000000000    0.0000000000000000
     0.0000000000000000   11.9285311965989376    0.0000000000000000
     0.0000000000000000    0.0000000000000000   11.5287107052303703
   Sb   Se
    23    36
Direct
  0.5336315497941685  0.0833581986034484  0.1875291084647585
  0.5099525254269747  0.4197286956335478  0.1398884181756753
  0.5099988099975418  0.7470155142864401  0.1399349359687778
  0.4777412335925038  0.2545024523866194  0.8388607579146814
  0.4777364970862878  0.9122468972605055  0.8388789074183584
  0.9750916315272127  0.2493228684933724  0.6726246865395649
  0.9764671211998536  0.5832876417292818  0.6739744960424744
  0.9750936323130076  0.9172633881726248  0.6726261796860333
  0.0345241010490392  0.0832901279362403  0.3274439274365796
  0.0227806066222726  0.4147209630794695  0.3315227348396848
  0.0227892084763233  0.7518657319543938  0.3315173501733981
  0.6486430494965683  0.2562187384717921  0.4637829120734404
  0.6024349151847745  0.5833480320678677  0.4339404835023110
  0.6486178670439459  0.9104748353030112  0.4638576011534968
  0.3688903539980825  0.0833739400003898  0.5240776939854509
  0.3448661685327390  0.4265288432079379  0.5535397105918610
  0.3448499801576256  0.7402807384508554  0.5535592070555874
  0.8592244017985619  0.0832771650717146  0.9640386487006173
  0.8550663324246283  0.4159215344563924  0.9620407467880523
  0.8550846699100934  0.7506532545899463  0.9620540897364698
  0.1488767598107254  0.2532016247060857  0.0401335525203956
  0.1434435281617167  0.5832755945508865  0.0406019390356309
  0.1488820745562660  0.9133673382983880  0.0401357400638779
  0.6328070217487074  0.2546710626083480  0.0609221504054215
  0.6180281933870571  0.5833772558713058  0.0361156180516959
  0.6328617962496805  0.9120881830002593  0.0609776811402903
  0.3826511742783416  0.0833861245871467  0.9415853102675623
  0.3687661236536384  0.4018358220611137  0.9568021975392289
  0.3687928745758622  0.7649032727246882  0.9568478329179076
  0.8759317750145059  0.0833024799910968  0.5557980988260894
  0.8755127239627333  0.4164464308528232  0.5581551732121646
  0.8755276977314816  0.7501312226745501  0.5581523208993806
  0.1288075971898268  0.2514141978654305  0.4471248212929503
  0.1212274513511855  0.5832963809091636  0.4448871406266707
  0.1288210539910258  0.9151677706353354  0.4471256813127933
  0.7179147025398854  0.0834145247564969  0.3081745579988340
  0.7037688055927870  0.4297461449284237  0.3121724628230397
  0.7038055923953859  0.7369516637878702  0.3122153615619070
  0.3008709250993358  0.2557313122821770  0.6969613859962304
  0.2998016251185230  0.5834000726015549  0.7068126521702985
  0.3008612772667786  0.9110562094133355  0.6970141210439633
  0.7931726358385760  0.2499113786212936  0.8069447225949322
  0.7933824597112080  0.5833108832419722  0.8070790232151748
  0.7931803086901812  0.9166555586763205  0.8069366473203066
  0.2163145127239041  0.0833112257412754  0.1951718981451463
  0.2054440222025714  0.4160226257761165  0.1971183596558103
  0.2054565937185880  0.7505467960338391  0.1971092545760174
  0.4500657704177273  0.2473585141873187  0.3693676862254490
  0.4097246155841331  0.5834299455029328  0.3513826760138747
  0.4500807204439258  0.9193245965749610  0.3693600656758817
  0.5615754842873362  0.0833738492741814  0.6256308582779403
  0.5612476166866722  0.4330683824069657  0.6098781069723229
  0.5612437138536777  0.7337649371968266  0.6098770737256449
  0.0558684969841458  0.0833178456816169  0.8708514898080083
  0.0556298276043629  0.4163822498279959  0.8732727168938758
  0.0556435816568310  0.7501861323480521  0.8732671048061602
  0.9474758309424398  0.2483000103118847  0.1314938218016506
  0.9454562719796676  0.5833188443967007  0.1315124059973414
  0.9474750956607368  0.9182386406040508  0.1314958337297978
 
  0.00000000E+00  0.00000000E+00  0.00000000E+00
  0.00000000E+00  0.00000000E+00  0.00000000E+00
  0.00000000E+00  0.00000000E+00  0.00000000E+00
  0.00000000E+00  0.00000000E+00  0.00000000E+00
  0.00000000E+00  0.00000000E+00  0.00000000E+00
  0.00000000E+00  0.00000000E+00  0.00000000E+00
  0.00000000E+00  0.00000000E+00  0.00000000E+00
  0.00000000E+00  0.00000000E+00  0.00000000E+00
  0.00000000E+00  0.00000000E+00  0.00000000E+00
  0.00000000E+00  0.00000000E+00  0.00000000E+00
  0.00000000E+00  0.00000000E+00  0.00000000E+00
  0.00000000E+00  0.00000000E+00  0.00000000E+00
  0.00000000E+00  0.00000000E+00  0.00000000E+00
  0.00000000E+00  0.00000000E+00  0.00000000E+00
  0.00000000E+00  0.00000000E+00  0.00000000E+00
  0.00000000E+00  0.00000000E+00  0.00000000E+00
  0.00000000E+00  0.00000000E+00  0.00000000E+00
  0.00000000E+00  0.00000000E+00  0.00000000E+00
  0.00000000E+00  0.00000000E+00  0.00000000E+00
  0.00000000E+00  0.00000000E+00  0.00000000E+00
  0.00000000E+00  0.00000000E+00  0.00000000E+00
  0.00000000E+00  0.00000000E+00  0.00000000E+00
  0.00000000E+00  0.00000000E+00  0.00000000E+00
  0.00000000E+00  0.00000000E+00  0.00000000E+00
  0.00000000E+00  0.00000000E+00  0.00000000E+00
  0.00000000E+00  0.00000000E+00  0.00000000E+00
  0.00000000E+00  0.00000000E+00  0.00000000E+00
  0.00000000E+00  0.00000000E+00  0.00000000E+00
  0.00000000E+00  0.00000000E+00  0.00000000E+00
  0.00000000E+00  0.00000000E+00  0.00000000E+00
  0.00000000E+00  0.00000000E+00  0.00000000E+00
  0.00000000E+00  0.00000000E+00  0.00000000E+00
  0.00000000E+00  0.00000000E+00  0.00000000E+00
  0.00000000E+00  0.00000000E+00  0.00000000E+00
  0.00000000E+00  0.00000000E+00  0.00000000E+00
  0.00000000E+00  0.00000000E+00  0.00000000E+00
  0.00000000E+00  0.00000000E+00  0.00000000E+00
  0.00000000E+00  0.00000000E+00  0.00000000E+00
  0.00000000E+00  0.00000000E+00  0.00000000E+00
  0.00000000E+00  0.00000000E+00  0.00000000E+00
  0.00000000E+00  0.00000000E+00  0.00000000E+00
  0.00000000E+00  0.00000000E+00  0.00000000E+00
  0.00000000E+00  0.00000000E+00  0.00000000E+00
  0.00000000E+00  0.00000000E+00  0.00000000E+00
  0.00000000E+00  0.00000000E+00  0.00000000E+00
  0.00000000E+00  0.00000000E+00  0.00000000E+00
  0.00000000E+00  0.00000000E+00  0.00000000E+00
  0.00000000E+00  0.00000000E+00  0.00000000E+00
  0.00000000E+00  0.00000000E+00  0.00000000E+00
  0.00000000E+00  0.00000000E+00  0.00000000E+00
  0.00000000E+00  0.00000000E+00  0.00000000E+00
  0.00000000E+00  0.00000000E+00  0.00000000E+00
  0.00000000E+00  0.00000000E+00  0.00000000E+00
  0.00000000E+00  0.00000000E+00  0.00000000E+00
  0.00000000E+00  0.00000000E+00  0.00000000E+00
  0.00000000E+00  0.00000000E+00  0.00000000E+00
  0.00000000E+00  0.00000000E+00  0.00000000E+00
  0.00000000E+00  0.00000000E+00  0.00000000E+00
  0.00000000E+00  0.00000000E+00  0.00000000E+00
