Sb2 Se3                                 
  0.99882000000000204     
    11.9454718211925162    0.0000000000000000    0.0000000000000000
     0.0000000000000000   11.9285311965989376    0.0000000000000000
     0.0000000000000000    0.0000000000000000   11.5287107052303703
   Sb   Se
    23    36
Direct
  0.5342138101657258  0.0833484458861640  0.1828701407548317
  0.5224318465973276  0.4182522291818386  0.1574254910822727
  0.5224686643724785  0.7484663679262448  0.1574789873688794
  0.4684548805918742  0.2554250045502811  0.8383898434603461
  0.4684613025037201  0.9113261129631479  0.8384158440958924
  0.9717387460319863  0.2484667333762648  0.6728279262257577
  0.9727187014166103  0.5833066878154944  0.6714102038079134
  0.9717414617353834  0.9181645594941980  0.6728163546186341
  0.0323636779319995  0.0833111073012277  0.3220019664355518
  0.0237536680684604  0.4153147598843397  0.3285148292556924
  0.0237581158087405  0.7513224217205946  0.3285028987655374
  0.6434338308562650  0.2573890026739515  0.4650799521892332
  0.6417523355000863  0.5833115798742246  0.4507221125151195
  0.6434258521861501  0.9092544779721174  0.4651369897656615
  0.3617067297957716  0.0833614620126353  0.5299699444894528
  0.3515902536129521  0.4258201314409709  0.5535102999052991
  0.3516006292486037  0.7409261191154767  0.5535193176976406
  0.8595854980082814  0.0832987094092557  0.9667911254603250
  0.8531786301227382  0.4157533935692124  0.9627447743773733
  0.8532013478071458  0.7508788423103496  0.9627633057985939
  0.1539835314595321  0.2554095699914855  0.0361803102034394
  0.1454571755393194  0.5832901594920592  0.0359386825520568
  0.1540118971875520  0.9111823294082105  0.0361657298575788
  0.6279775299742912  0.2507972609947035  0.0520679248028833
  0.6179060630596191  0.5833691920882480  0.0412112349980206
  0.6280064161571395  0.9159052132264683  0.0520777561590714
  0.3729783623180931  0.0833830783748050  0.9431938880129199
  0.3663669772748015  0.4031053937698598  0.9598959277841159
  0.3663667768252709  0.7636505650245741  0.9599173819945438
  0.8727316824718515  0.0833259376442134  0.5560012578078285
  0.8732475966263451  0.4170144860059796  0.5552839108443104
  0.8732559004168088  0.7496052390692197  0.5552873332181362
  0.1259367064763700  0.2503540247850806  0.4438400253467448
  0.1232938771374729  0.5833264801295847  0.4418665891614664
  0.1259487869748680  0.9162667328559025  0.4438413871200520
  0.7149071925012466  0.0833664486429893  0.3067442872845786
  0.7073562042897936  0.4164985471884844  0.3010122223258206
  0.7073785687765366  0.7501673592313626  0.3010439912178239
  0.2906674591270507  0.2530081634794471  0.6943101418715599
  0.3028155941445665  0.5833720638648999  0.7070911780796333
  0.2906827803683370  0.9137348022002528  0.6943252825367953
  0.7912065879641246  0.2506801814966893  0.8073374377160523
  0.7915262709074552  0.5833311499777291  0.8067526170834632
  0.7912184209338844  0.9159414101142346  0.8073323827742099
  0.2153215363055588  0.0833297707463744  0.1930374154985839
  0.2067855056972672  0.4166881294923375  0.1949063622263714
  0.2067971917103291  0.7499202347135377  0.1948970847350818
  0.4469088940357296  0.2482993181001215  0.3683162717972899
  0.4424528336197773  0.5833891154741654  0.3643289942839329
  0.4469164791694153  0.9183449503658762  0.3683467836050818
  0.5560631433579584  0.0833769963347087  0.6257373916052086
  0.5572539965266535  0.4179216405213629  0.6234909379509040
  0.5572686666771219  0.7487365782662073  0.6235166012634272
  0.0536504644159463  0.0833440504829859  0.8669467257456690
  0.0537851980192457  0.4169899443730471  0.8726397207443420
  0.0538024342092647  0.7496141336399447  0.8726336555632376
  0.9494697107584942  0.2488214175172412  0.1276300535912410
  0.9471216627971456  0.5833367257970682  0.1285003163672760
  0.9494769297197684  0.9177697233072125  0.1276186375882620

  0.00000000E+00  0.00000000E+00  0.00000000E+00
  0.00000000E+00  0.00000000E+00  0.00000000E+00
  0.00000000E+00  0.00000000E+00  0.00000000E+00
  0.00000000E+00  0.00000000E+00  0.00000000E+00
  0.00000000E+00  0.00000000E+00  0.00000000E+00
  0.00000000E+00  0.00000000E+00  0.00000000E+00
  0.00000000E+00  0.00000000E+00  0.00000000E+00
  0.00000000E+00  0.00000000E+00  0.00000000E+00
  0.00000000E+00  0.00000000E+00  0.00000000E+00
  0.00000000E+00  0.00000000E+00  0.00000000E+00
  0.00000000E+00  0.00000000E+00  0.00000000E+00
  0.00000000E+00  0.00000000E+00  0.00000000E+00
  0.00000000E+00  0.00000000E+00  0.00000000E+00
  0.00000000E+00  0.00000000E+00  0.00000000E+00
  0.00000000E+00  0.00000000E+00  0.00000000E+00
  0.00000000E+00  0.00000000E+00  0.00000000E+00
  0.00000000E+00  0.00000000E+00  0.00000000E+00
  0.00000000E+00  0.00000000E+00  0.00000000E+00
  0.00000000E+00  0.00000000E+00  0.00000000E+00
  0.00000000E+00  0.00000000E+00  0.00000000E+00
  0.00000000E+00  0.00000000E+00  0.00000000E+00
  0.00000000E+00  0.00000000E+00  0.00000000E+00
  0.00000000E+00  0.00000000E+00  0.00000000E+00
  0.00000000E+00  0.00000000E+00  0.00000000E+00
  0.00000000E+00  0.00000000E+00  0.00000000E+00
  0.00000000E+00  0.00000000E+00  0.00000000E+00
  0.00000000E+00  0.00000000E+00  0.00000000E+00
  0.00000000E+00  0.00000000E+00  0.00000000E+00
  0.00000000E+00  0.00000000E+00  0.00000000E+00
  0.00000000E+00  0.00000000E+00  0.00000000E+00
  0.00000000E+00  0.00000000E+00  0.00000000E+00
  0.00000000E+00  0.00000000E+00  0.00000000E+00
  0.00000000E+00  0.00000000E+00  0.00000000E+00
  0.00000000E+00  0.00000000E+00  0.00000000E+00
  0.00000000E+00  0.00000000E+00  0.00000000E+00
  0.00000000E+00  0.00000000E+00  0.00000000E+00
  0.00000000E+00  0.00000000E+00  0.00000000E+00
  0.00000000E+00  0.00000000E+00  0.00000000E+00
  0.00000000E+00  0.00000000E+00  0.00000000E+00
  0.00000000E+00  0.00000000E+00  0.00000000E+00
  0.00000000E+00  0.00000000E+00  0.00000000E+00
  0.00000000E+00  0.00000000E+00  0.00000000E+00
  0.00000000E+00  0.00000000E+00  0.00000000E+00
  0.00000000E+00  0.00000000E+00  0.00000000E+00
  0.00000000E+00  0.00000000E+00  0.00000000E+00
  0.00000000E+00  0.00000000E+00  0.00000000E+00
  0.00000000E+00  0.00000000E+00  0.00000000E+00
  0.00000000E+00  0.00000000E+00  0.00000000E+00
  0.00000000E+00  0.00000000E+00  0.00000000E+00
  0.00000000E+00  0.00000000E+00  0.00000000E+00
  0.00000000E+00  0.00000000E+00  0.00000000E+00
  0.00000000E+00  0.00000000E+00  0.00000000E+00
  0.00000000E+00  0.00000000E+00  0.00000000E+00
  0.00000000E+00  0.00000000E+00  0.00000000E+00
  0.00000000E+00  0.00000000E+00  0.00000000E+00
  0.00000000E+00  0.00000000E+00  0.00000000E+00
  0.00000000E+00  0.00000000E+00  0.00000000E+00
  0.00000000E+00  0.00000000E+00  0.00000000E+00
  0.00000000E+00  0.00000000E+00  0.00000000E+00
