Sb2 Se3                                 
  0.99882000000000204     
    11.9454718211925162    0.0000000000000000    0.0000000000000000
     0.0000000000000000   11.9285311965989376    0.0000000000000000
     0.0000000000000000    0.0000000000000000   11.5287107052303703
   Sb   Se
    23    36
Direct
  0.5361782852139020  0.0833441033303593  0.1833426530904002
  0.5245686681690038  0.4179352524014565  0.1585204879495080
  0.5245975625876376  0.7487655236128885  0.1585549375506900
  0.4647857276695232  0.2554776329596130  0.8369027502580653
  0.4647818464135203  0.9112150458869098  0.8369216615333273
  0.9721621406384332  0.2480279240970547  0.6746998498733318
  0.9738302044973559  0.5833199186090159  0.6717907580645379
  0.9721643741460990  0.9186292924240255  0.6746870792322638
  0.0325237262213614  0.0833245654399510  0.3206246237991439
  0.0215854541155426  0.4147984317112908  0.3287551493107022
  0.0215981679789329  0.7518619209971986  0.3287424641555661
  0.6443832641426569  0.2575730943881934  0.4648586369107514
  0.6436916915471684  0.5833213076236203  0.4540479555557610
  0.6443737600100903  0.9090867594067717  0.4648894209363071
  0.3606856344944600  0.0833510202962314  0.5298164906701035
  0.3503028067823798  0.4266431732211481  0.5487533235988911
  0.3503060502630373  0.7400798713218021  0.5487652749019173
  0.8607882993402786  0.0833134456476481  0.9695760388570432
  0.8525753428365969  0.4152987201296620  0.9638069522034960
  0.8525978095681433  0.7513627757173669  0.9638233524271372
  0.1572978331683191  0.2568320949575754  0.0362630696298470
  0.1454493555032021  0.5832955939508490  0.0361093562322580
  0.1573313800705834  0.9097636605172387  0.0362365015130297
  0.6287113848438109  0.2516391480900571  0.0513869928722036
  0.6175390097720939  0.5833554744318220  0.0393265384360296
  0.6287290589667085  0.9150558189179172  0.0513921901072425
  0.3724887650094325  0.0833563424529565  0.9438367736790716
  0.3630533782141676  0.4002969267850128  0.9616921698953607
  0.3630633237765481  0.7663515254436967  0.9616745804601999
  0.8729523435487021  0.0833378612538748  0.5577279621070540
  0.8737099843905005  0.4171082376553886  0.5565968096214700
  0.8737218327311677  0.7495370644186816  0.5565948315064235
  0.1249213899889493  0.2504793397461040  0.4434637380332735
  0.1218132908710506  0.5833363387815573  0.4409914865778679
  0.1249381032657810  0.9161686203804835  0.4434614282812158
  0.7169716589692473  0.0833655030966409  0.3065910606311788
  0.7088561764314792  0.4173870974092672  0.3015822127370184
  0.7088751222853383  0.7492708362172456  0.3015967182506918
  0.2892938772195353  0.2516953919521721  0.6916902220846359
  0.3016966540391187  0.5833586846758259  0.7022478731061297
  0.2892979930381860  0.9150077114264626  0.6917080637653996
  0.7914750110875358  0.2508589763389631  0.8083080447429173
  0.7926290752562876  0.5833450252633283  0.8073496594731773
  0.7914865971307856  0.9157866730192328  0.8083012398798779
  0.2165368834309513  0.0833415709244749  0.1940972430578299
  0.2057758754420380  0.4169590782899649  0.1962570722085987
  0.2057932596329947  0.7496602885901640  0.1962453746851977
  0.4493574281798767  0.2476211355369873  0.3662582245925090
  0.4440530556877192  0.5833802705412949  0.3673729969783832
  0.4493636893746185  0.9190144141038638  0.3662671538977250
  0.5552338510013548  0.0833644775161033  0.6246487399745025
  0.5552133952609516  0.4170032799332868  0.6220703028677818
  0.5552255440685551  0.7496639747595569  0.6220857238044672
  0.0534466121725459  0.0833527571378818  0.8667543215179504
  0.0539757800693827  0.4169488097694520  0.8738787694085605
  0.0539972941994128  0.7496758356691281  0.8738757734136747
  0.9500682788799099  0.2487052597329405  0.1277314184428833
  0.9469694489662296  0.5833479506054209  0.1288922433791570
  0.9500891757131255  0.9179078371515536  0.1277133986572865

  0.00000000E+00  0.00000000E+00  0.00000000E+00
  0.00000000E+00  0.00000000E+00  0.00000000E+00
  0.00000000E+00  0.00000000E+00  0.00000000E+00
  0.00000000E+00  0.00000000E+00  0.00000000E+00
  0.00000000E+00  0.00000000E+00  0.00000000E+00
  0.00000000E+00  0.00000000E+00  0.00000000E+00
  0.00000000E+00  0.00000000E+00  0.00000000E+00
  0.00000000E+00  0.00000000E+00  0.00000000E+00
  0.00000000E+00  0.00000000E+00  0.00000000E+00
  0.00000000E+00  0.00000000E+00  0.00000000E+00
  0.00000000E+00  0.00000000E+00  0.00000000E+00
  0.00000000E+00  0.00000000E+00  0.00000000E+00
  0.00000000E+00  0.00000000E+00  0.00000000E+00
  0.00000000E+00  0.00000000E+00  0.00000000E+00
  0.00000000E+00  0.00000000E+00  0.00000000E+00
  0.00000000E+00  0.00000000E+00  0.00000000E+00
  0.00000000E+00  0.00000000E+00  0.00000000E+00
  0.00000000E+00  0.00000000E+00  0.00000000E+00
  0.00000000E+00  0.00000000E+00  0.00000000E+00
  0.00000000E+00  0.00000000E+00  0.00000000E+00
  0.00000000E+00  0.00000000E+00  0.00000000E+00
  0.00000000E+00  0.00000000E+00  0.00000000E+00
  0.00000000E+00  0.00000000E+00  0.00000000E+00
  0.00000000E+00  0.00000000E+00  0.00000000E+00
  0.00000000E+00  0.00000000E+00  0.00000000E+00
  0.00000000E+00  0.00000000E+00  0.00000000E+00
  0.00000000E+00  0.00000000E+00  0.00000000E+00
  0.00000000E+00  0.00000000E+00  0.00000000E+00
  0.00000000E+00  0.00000000E+00  0.00000000E+00
  0.00000000E+00  0.00000000E+00  0.00000000E+00
  0.00000000E+00  0.00000000E+00  0.00000000E+00
  0.00000000E+00  0.00000000E+00  0.00000000E+00
  0.00000000E+00  0.00000000E+00  0.00000000E+00
  0.00000000E+00  0.00000000E+00  0.00000000E+00
  0.00000000E+00  0.00000000E+00  0.00000000E+00
  0.00000000E+00  0.00000000E+00  0.00000000E+00
  0.00000000E+00  0.00000000E+00  0.00000000E+00
  0.00000000E+00  0.00000000E+00  0.00000000E+00
  0.00000000E+00  0.00000000E+00  0.00000000E+00
  0.00000000E+00  0.00000000E+00  0.00000000E+00
  0.00000000E+00  0.00000000E+00  0.00000000E+00
  0.00000000E+00  0.00000000E+00  0.00000000E+00
  0.00000000E+00  0.00000000E+00  0.00000000E+00
  0.00000000E+00  0.00000000E+00  0.00000000E+00
  0.00000000E+00  0.00000000E+00  0.00000000E+00
  0.00000000E+00  0.00000000E+00  0.00000000E+00
  0.00000000E+00  0.00000000E+00  0.00000000E+00
  0.00000000E+00  0.00000000E+00  0.00000000E+00
  0.00000000E+00  0.00000000E+00  0.00000000E+00
  0.00000000E+00  0.00000000E+00  0.00000000E+00
  0.00000000E+00  0.00000000E+00  0.00000000E+00
  0.00000000E+00  0.00000000E+00  0.00000000E+00
  0.00000000E+00  0.00000000E+00  0.00000000E+00
  0.00000000E+00  0.00000000E+00  0.00000000E+00
  0.00000000E+00  0.00000000E+00  0.00000000E+00
  0.00000000E+00  0.00000000E+00  0.00000000E+00
  0.00000000E+00  0.00000000E+00  0.00000000E+00
  0.00000000E+00  0.00000000E+00  0.00000000E+00
  0.00000000E+00  0.00000000E+00  0.00000000E+00
