Sb2 Se3                                 
  0.99882000000000204     
    11.9454718211925162    0.0000000000000000    0.0000000000000000
     0.0000000000000000   11.9285311965989376    0.0000000000000000
     0.0000000000000000    0.0000000000000000   11.5287107052303703
   Sb   Se
    23    36
Direct
  0.5331259986039809  0.0833595929715356  0.1837593224710966
  0.5193739751409303  0.4185213518108264  0.1539027676642577
  0.5194270018837842  0.7482190607431973  0.1540005799857486
  0.4716124494380853  0.2550385456737185  0.8389551436781454
  0.4716332232033152  0.9117628924965030  0.8390088703374966
  0.9724020708578494  0.2488232759615338  0.6717385742967308
  0.9730513916126611  0.5832981991948746  0.6713513464643240
  0.9724008140690550  0.9177908255153797  0.6717325733070411
  0.0320303569336859  0.0832994516317312  0.3234508534386042
  0.0243854796793013  0.4155635918456982  0.3289194424779681
  0.0243875616302209  0.7510548067435469  0.3289129592233177
  0.6428624282325534  0.2580443150104539  0.4653730247227639
  0.6373104241028804  0.5832862463617986  0.4463425413933728
  0.6428481243160253  0.9085618573261961  0.4654698340949716
  0.3634466656895928  0.0833756938374989  0.5288705204588873
  0.3518292068500416  0.4257692441855675  0.5567269634511297
  0.3518346891301055  0.7410075297507440  0.5567364407608707
  0.8593904120444732  0.0832901708689257  0.9648698046953024
  0.8538469627769729  0.4159494562752624  0.9616921422216140
  0.8538720439907274  0.7506618202074529  0.9617127360294369
  0.1516932297941636  0.2544379623966312  0.0368799733620613
  0.1449134796537033  0.5832838090965973  0.0368413576400577
  0.1517214124076732  0.9121423784743099  0.0368802305521395
  0.6281986263820912  0.2506101726138582  0.0532432798607810
  0.6185772398529334  0.5833861711567100  0.0417725722275702
  0.6282472954977710  0.9161140540433655  0.0532872554601618
  0.3741527703137436  0.0834077461861269  0.9428294345210804
  0.3686215279859815  0.4043350566843972  0.9587314494691190
  0.3686216653398710  0.7625047678780628  0.9588033204621614
  0.8732928846697149  0.0833189485114822  0.5551144771611368
  0.8734521877739109  0.4169742218891633  0.5546912089383701
  0.8734595886813808  0.7496282045431049  0.5546945835336379
  0.1267315873116165  0.2503768214848868  0.4442331311526178
  0.1238166491982891  0.5833153552217027  0.4425188233850911
  0.1267440857436785  0.9162240813603738  0.4442376270440500
  0.7139904636863924  0.0833817566509714  0.3076528838663104
  0.7053890496303635  0.4169791102610040  0.3007482342171973
  0.7054201527229865  0.7496581760227277  0.3008077125079932
  0.2924212857704788  0.2538778539107319  0.6961099972009467
  0.3035043404837720  0.5833877701422958  0.7104843529993093
  0.2924558198607599  0.9128888532497638  0.6961416453519556
  0.7915758525604852  0.2505017484966482  0.8064880352438385
  0.7914239115840310  0.5833234115433350  0.8061611894550206
  0.7915840540413743  0.9161014905418357  0.8064848819945164
  0.2145717630719380  0.0833224042870181  0.1929290904635937
  0.2069685200679221  0.4165073200234433  0.1946175619434290
  0.2069790239670044  0.7500862301040607  0.1946147047884653
  0.4454953676073816  0.2487935962715620  0.3693730091381364
  0.4384614292249744  0.5833956524880594  0.3608020016225362
  0.4455131661093137  0.9178634888915203  0.3694027139464560
  0.5575194064828022  0.0833864133901881  0.6262733774090451
  0.5584469529512633  0.4190375211892536  0.6243456072660299
  0.5584663731702246  0.7476028501173381  0.6243575328131030
  0.0543983371623207  0.0833359728171908  0.8672062944517640
  0.0540752371441598  0.4169493696500918  0.8718917236182347
  0.0540917974043000  0.7496431422980444  0.8718847495921579
  0.9486070663505894  0.2488284556635887  0.1281363383593881
  0.9465996532048526  0.5833293863539777  0.1288268325228259
  0.9486084532418976  0.9177470123487861  0.1281325046736663

  0.00000000E+00  0.00000000E+00  0.00000000E+00
  0.00000000E+00  0.00000000E+00  0.00000000E+00
  0.00000000E+00  0.00000000E+00  0.00000000E+00
  0.00000000E+00  0.00000000E+00  0.00000000E+00
  0.00000000E+00  0.00000000E+00  0.00000000E+00
  0.00000000E+00  0.00000000E+00  0.00000000E+00
  0.00000000E+00  0.00000000E+00  0.00000000E+00
  0.00000000E+00  0.00000000E+00  0.00000000E+00
  0.00000000E+00  0.00000000E+00  0.00000000E+00
  0.00000000E+00  0.00000000E+00  0.00000000E+00
  0.00000000E+00  0.00000000E+00  0.00000000E+00
  0.00000000E+00  0.00000000E+00  0.00000000E+00
  0.00000000E+00  0.00000000E+00  0.00000000E+00
  0.00000000E+00  0.00000000E+00  0.00000000E+00
  0.00000000E+00  0.00000000E+00  0.00000000E+00
  0.00000000E+00  0.00000000E+00  0.00000000E+00
  0.00000000E+00  0.00000000E+00  0.00000000E+00
  0.00000000E+00  0.00000000E+00  0.00000000E+00
  0.00000000E+00  0.00000000E+00  0.00000000E+00
  0.00000000E+00  0.00000000E+00  0.00000000E+00
  0.00000000E+00  0.00000000E+00  0.00000000E+00
  0.00000000E+00  0.00000000E+00  0.00000000E+00
  0.00000000E+00  0.00000000E+00  0.00000000E+00
  0.00000000E+00  0.00000000E+00  0.00000000E+00
  0.00000000E+00  0.00000000E+00  0.00000000E+00
  0.00000000E+00  0.00000000E+00  0.00000000E+00
  0.00000000E+00  0.00000000E+00  0.00000000E+00
  0.00000000E+00  0.00000000E+00  0.00000000E+00
  0.00000000E+00  0.00000000E+00  0.00000000E+00
  0.00000000E+00  0.00000000E+00  0.00000000E+00
  0.00000000E+00  0.00000000E+00  0.00000000E+00
  0.00000000E+00  0.00000000E+00  0.00000000E+00
  0.00000000E+00  0.00000000E+00  0.00000000E+00
  0.00000000E+00  0.00000000E+00  0.00000000E+00
  0.00000000E+00  0.00000000E+00  0.00000000E+00
  0.00000000E+00  0.00000000E+00  0.00000000E+00
  0.00000000E+00  0.00000000E+00  0.00000000E+00
  0.00000000E+00  0.00000000E+00  0.00000000E+00
  0.00000000E+00  0.00000000E+00  0.00000000E+00
  0.00000000E+00  0.00000000E+00  0.00000000E+00
  0.00000000E+00  0.00000000E+00  0.00000000E+00
  0.00000000E+00  0.00000000E+00  0.00000000E+00
  0.00000000E+00  0.00000000E+00  0.00000000E+00
  0.00000000E+00  0.00000000E+00  0.00000000E+00
  0.00000000E+00  0.00000000E+00  0.00000000E+00
  0.00000000E+00  0.00000000E+00  0.00000000E+00
  0.00000000E+00  0.00000000E+00  0.00000000E+00
  0.00000000E+00  0.00000000E+00  0.00000000E+00
  0.00000000E+00  0.00000000E+00  0.00000000E+00
  0.00000000E+00  0.00000000E+00  0.00000000E+00
  0.00000000E+00  0.00000000E+00  0.00000000E+00
  0.00000000E+00  0.00000000E+00  0.00000000E+00
  0.00000000E+00  0.00000000E+00  0.00000000E+00
  0.00000000E+00  0.00000000E+00  0.00000000E+00
  0.00000000E+00  0.00000000E+00  0.00000000E+00
  0.00000000E+00  0.00000000E+00  0.00000000E+00
  0.00000000E+00  0.00000000E+00  0.00000000E+00
  0.00000000E+00  0.00000000E+00  0.00000000E+00
  0.00000000E+00  0.00000000E+00  0.00000000E+00
