Sb2 Se3                                 
  0.99882000000000204     
    11.9454718211925162    0.0000000000000000    0.0000000000000000
     0.0000000000000000   11.9285311965989376    0.0000000000000000
     0.0000000000000000    0.0000000000000000   11.5287107052303703
   Sb   Se
    25    35
Direct
  0.7356491242266275  0.4167071269584648  0.2983849848781164
  0.5261766950967369  0.0826498790795630  0.1689066145584150
  0.5244288273105913  0.4166493756331177  0.1765108880865232
  0.5261940707465720  0.7506766816409175  0.1689399277387523
  0.4706192128189282  0.2507410884311098  0.8273556335197472
  0.4706338750943866  0.5825910215907980  0.8273480992018410
  0.4697171719920592  0.9166701904490587  0.8238689349384400
  0.9696151879589939  0.2495147398379880  0.6717245148637604
  0.9696163736160822  0.5837952627805633  0.6717146666236008
  0.9695042753571546  0.9166610722787638  0.6718058511016796
  0.0299261079468899  0.0835930067403483  0.3276950227101194
  0.0334583197202354  0.4166561259960354  0.3249325197865706
  0.0299360508280311  0.7497118454864798  0.3276870837494196
  0.6472949551148498  0.2472932693378261  0.4563080973456276
  0.6473718280035348  0.5860735407181920  0.4563260954885500
  0.6426046592269684  0.9166891141399481  0.4644616232851717
  0.3525458647273420  0.0831557873109165  0.5398686699933729
  0.3557527874382720  0.4166730683596027  0.5391573169324105
  0.3525844762999238  0.7501655103526598  0.5398377073831616
  0.8542768547659112  0.0834072517857921  0.9634489423107433
  0.8547957107611580  0.4166605160410754  0.9611919178271818
  0.8542879741224072  0.7498954208641383  0.9634434405054925
  0.1483757803440166  0.2494328367223475  0.0354244878413981
  0.1483901819903603  0.5838681666430945  0.0354270516329589
  0.1472668834870239  0.9166622766728952  0.0370186775173528
  0.6256089336202062  0.2505454714416732  0.0574252872554843
  0.6256469516112992  0.5827897638894716  0.0574664784195493
  0.6277009526305996  0.9166593413342043  0.0551072110725487
  0.3729198945731547  0.0841342722836319  0.9465705412192049
  0.3711562394182430  0.4166684124428253  0.9432523174610261
  0.3729479131011478  0.7492187470770717  0.9465538173456621
  0.8715626857914236  0.0833170585754417  0.5547175025628377
  0.8722530623774654  0.4166475025388237  0.5544321226020076
  0.8715809358193762  0.7500112613448979  0.5547093006465936
  0.1273314176103784  0.2491182317912872  0.4458020695884040
  0.1273485298674003  0.5841947896068476  0.4457948751696024
  0.1266104495860678  0.9166496474725505  0.4456837448586640
  0.7083277052200035  0.0804954453055791  0.3069897590154354
  0.7083462997690977  0.7529090427284554  0.3069964962841267
  0.2885085608448815  0.2502427496757679  0.6946951110217217
  0.2885340127892585  0.5831197376989578  0.6946981842578903
  0.2851574095101399  0.9166714569037147  0.6955947600093868
  0.7890451025757685  0.2500954852931212  0.8073107675611492
  0.7890530024876128  0.5832406873861364  0.8072977197807487
  0.7891721762916546  0.9166367845133828  0.8079153143695227
  0.2108259178455958  0.0830788509290257  0.1928742576710814
  0.2139480407658196  0.4166358145795317  0.1909062791595331
  0.2108413027545344  0.7502579858076895  0.1928640784590270
  0.4464812070961613  0.2493584692187194  0.3711491340510568
  0.4465219708385458  0.5840206213852254  0.3711941341857800
  0.4444881887988099  0.9166544419878804  0.3735004877349644
  0.5490332175735846  0.0805260878725258  0.6355757017778670
  0.5528509963420639  0.4166398370040759  0.6311241624551495
  0.5490251555818557  0.7529226092159608  0.6356222901056977
  0.0522621883322279  0.0836372437136231  0.8706837223915800
  0.0534902759577705  0.4166385273106206  0.8707526772123727
  0.0522800233699834  0.7496940022292359  0.8706827993929320
  0.9499944015145433  0.2503885327631231  0.1286376888054353
  0.9500149329596613  0.5829508269038955  0.1286396745468845
  0.9481066957786114  0.9166360839233076  0.1279907287286803

  0.00000000E+00  0.00000000E+00  0.00000000E+00
  0.00000000E+00  0.00000000E+00  0.00000000E+00
  0.00000000E+00  0.00000000E+00  0.00000000E+00
  0.00000000E+00  0.00000000E+00  0.00000000E+00
  0.00000000E+00  0.00000000E+00  0.00000000E+00
  0.00000000E+00  0.00000000E+00  0.00000000E+00
  0.00000000E+00  0.00000000E+00  0.00000000E+00
  0.00000000E+00  0.00000000E+00  0.00000000E+00
  0.00000000E+00  0.00000000E+00  0.00000000E+00
  0.00000000E+00  0.00000000E+00  0.00000000E+00
  0.00000000E+00  0.00000000E+00  0.00000000E+00
  0.00000000E+00  0.00000000E+00  0.00000000E+00
  0.00000000E+00  0.00000000E+00  0.00000000E+00
  0.00000000E+00  0.00000000E+00  0.00000000E+00
  0.00000000E+00  0.00000000E+00  0.00000000E+00
  0.00000000E+00  0.00000000E+00  0.00000000E+00
  0.00000000E+00  0.00000000E+00  0.00000000E+00
  0.00000000E+00  0.00000000E+00  0.00000000E+00
  0.00000000E+00  0.00000000E+00  0.00000000E+00
  0.00000000E+00  0.00000000E+00  0.00000000E+00
  0.00000000E+00  0.00000000E+00  0.00000000E+00
  0.00000000E+00  0.00000000E+00  0.00000000E+00
  0.00000000E+00  0.00000000E+00  0.00000000E+00
  0.00000000E+00  0.00000000E+00  0.00000000E+00
  0.00000000E+00  0.00000000E+00  0.00000000E+00
  0.00000000E+00  0.00000000E+00  0.00000000E+00
  0.00000000E+00  0.00000000E+00  0.00000000E+00
  0.00000000E+00  0.00000000E+00  0.00000000E+00
  0.00000000E+00  0.00000000E+00  0.00000000E+00
  0.00000000E+00  0.00000000E+00  0.00000000E+00
  0.00000000E+00  0.00000000E+00  0.00000000E+00
  0.00000000E+00  0.00000000E+00  0.00000000E+00
  0.00000000E+00  0.00000000E+00  0.00000000E+00
  0.00000000E+00  0.00000000E+00  0.00000000E+00
  0.00000000E+00  0.00000000E+00  0.00000000E+00
  0.00000000E+00  0.00000000E+00  0.00000000E+00
  0.00000000E+00  0.00000000E+00  0.00000000E+00
  0.00000000E+00  0.00000000E+00  0.00000000E+00
  0.00000000E+00  0.00000000E+00  0.00000000E+00
  0.00000000E+00  0.00000000E+00  0.00000000E+00
  0.00000000E+00  0.00000000E+00  0.00000000E+00
  0.00000000E+00  0.00000000E+00  0.00000000E+00
  0.00000000E+00  0.00000000E+00  0.00000000E+00
  0.00000000E+00  0.00000000E+00  0.00000000E+00
  0.00000000E+00  0.00000000E+00  0.00000000E+00
  0.00000000E+00  0.00000000E+00  0.00000000E+00
  0.00000000E+00  0.00000000E+00  0.00000000E+00
  0.00000000E+00  0.00000000E+00  0.00000000E+00
  0.00000000E+00  0.00000000E+00  0.00000000E+00
  0.00000000E+00  0.00000000E+00  0.00000000E+00
  0.00000000E+00  0.00000000E+00  0.00000000E+00
  0.00000000E+00  0.00000000E+00  0.00000000E+00
  0.00000000E+00  0.00000000E+00  0.00000000E+00
  0.00000000E+00  0.00000000E+00  0.00000000E+00
  0.00000000E+00  0.00000000E+00  0.00000000E+00
  0.00000000E+00  0.00000000E+00  0.00000000E+00
  0.00000000E+00  0.00000000E+00  0.00000000E+00
  0.00000000E+00  0.00000000E+00  0.00000000E+00
  0.00000000E+00  0.00000000E+00  0.00000000E+00
  0.00000000E+00  0.00000000E+00  0.00000000E+00
