Sb2 Se3                                 
  0.99882000000000204     
    11.9454718211925162    0.0000000000000000    0.0000000000000000
     0.0000000000000000   11.9285311965989376    0.0000000000000000
     0.0000000000000000    0.0000000000000000   11.5287107052303703
   Sb   Se
    25    35
Direct
  0.7356559637511629  0.4166834486664681  0.2981731525666991
  0.5278923381816869  0.0825801642079751  0.1692728348687461
  0.5309817058975326  0.4166708901280413  0.1750912393360299
  0.5278970369097473  0.7507485153617882  0.1692757528008386
  0.4671428964831428  0.2499159549989313  0.8278443755918342
  0.4671571367348731  0.5834143103521112  0.8278454154398966
  0.4657480363837587  0.9166749403234020  0.8188613345316672
  0.9718013804438264  0.2490561506184261  0.6734490669974112
  0.9718055789064016  0.5842550206317717  0.6734405111124928
  0.9700013621081471  0.9166613482865091  0.6712804916690122
  0.0291163712842111  0.0837666147603087  0.3274557766468565
  0.0323627507111125  0.4166579931113127  0.3241961101604832
  0.0291243544337892  0.7495364911619258  0.3274479874550424
  0.6529689464135878  0.2512175643358168  0.4592793236631333
  0.6529844618515238  0.5821605598042290  0.4592773593938454
  0.6420719807399665  0.9166993521016538  0.4629538185287021
  0.3516751502740878  0.0848025500080710  0.5396843049748966
  0.3579260557252859  0.4166812046637810  0.5363585507975863
  0.3516931585232873  0.7485554711467344  0.5396767859632455
  0.8535393544537881  0.0834980491156542  0.9641472868917474
  0.8544683416408246  0.4166595746290714  0.9626240063234586
  0.8535527839694736  0.7498034302914711  0.9641442096030880
  0.1494576331850842  0.2491414200347110  0.0358192456336158
  0.1494748657299764  0.5841657067150012  0.0358196143476132
  0.1471160781492596  0.9166614768963947  0.0359443248718618
  0.6245846382045298  0.2482547577642587  0.0519708490760130
  0.6246003724072736  0.5850846391238025  0.0519721349880075
  0.6268747750367754  0.9166586985434660  0.0540841720552750
  0.3702649939881091  0.0852380109545385  0.9471620755992031
  0.3686293229313565  0.4166666039674940  0.9423963712574814
  0.3702912947092146  0.7480989143793064  0.9471621108242076
  0.8722199579312929  0.0834044563639849  0.5557455992273300
  0.8755679522572134  0.4166475285742036  0.5571121763526020
  0.8722374181364340  0.7499193098158299  0.5557375851535973
  0.1268137167860004  0.2491489731798623  0.4450759507945378
  0.1268309073353150  0.5841641339644932  0.4450717026540335
  0.1259477151840156  0.9166475498310875  0.4448175145513557
  0.7093475526333941  0.0806037031953069  0.3069094704276749
  0.7093550187165599  0.7527948338771961  0.3069250887355525
  0.2861894971677446  0.2512071794687518  0.6923615078359573
  0.2862085853097980  0.5821718754993067  0.6923645842096269
  0.2800999805024737  0.9166538336446595  0.6948078684055695
  0.7901563888889735  0.2496852558970464  0.8074643414168744
  0.7901648025662934  0.5836445944365929  0.8074517205980868
  0.7894574505946226  0.9166376762027885  0.8079535346487090
  0.2103489817900869  0.0832595281189029  0.1931561121659710
  0.2139553677728835  0.4166377346021322  0.1914561579374909
  0.2103630063295475  0.7500737352466393  0.1931472098408409
  0.4504147266977865  0.2490648067249673  0.3740307309288825
  0.4504309341133567  0.5842971229391657  0.3740385111411756
  0.4446491140557770  0.9166571283526832  0.3719453475504341
  0.5453552728615837  0.0787864085621145  0.6383486166948368
  0.5538763838134169  0.4166454189424282  0.6306072851988872
  0.5453731880308078  0.7546296856684842  0.6383494827303348
  0.0523222549652369  0.0830472481706436  0.8723331521318678
  0.0529134049755516  0.4166372890683160  0.8710744076334026
  0.0523386734614544  0.7502888714980780  0.8723263868017976
  0.9499484292322053  0.2506460019120854  0.1284609917529646
  0.9499687314833782  0.5826939352825767  0.1284587344026522
  0.9482834662440031  0.9166343538752376  0.1283576011069752

  0.00000000E+00  0.00000000E+00  0.00000000E+00
  0.00000000E+00  0.00000000E+00  0.00000000E+00
  0.00000000E+00  0.00000000E+00  0.00000000E+00
  0.00000000E+00  0.00000000E+00  0.00000000E+00
  0.00000000E+00  0.00000000E+00  0.00000000E+00
  0.00000000E+00  0.00000000E+00  0.00000000E+00
  0.00000000E+00  0.00000000E+00  0.00000000E+00
  0.00000000E+00  0.00000000E+00  0.00000000E+00
  0.00000000E+00  0.00000000E+00  0.00000000E+00
  0.00000000E+00  0.00000000E+00  0.00000000E+00
  0.00000000E+00  0.00000000E+00  0.00000000E+00
  0.00000000E+00  0.00000000E+00  0.00000000E+00
  0.00000000E+00  0.00000000E+00  0.00000000E+00
  0.00000000E+00  0.00000000E+00  0.00000000E+00
  0.00000000E+00  0.00000000E+00  0.00000000E+00
  0.00000000E+00  0.00000000E+00  0.00000000E+00
  0.00000000E+00  0.00000000E+00  0.00000000E+00
  0.00000000E+00  0.00000000E+00  0.00000000E+00
  0.00000000E+00  0.00000000E+00  0.00000000E+00
  0.00000000E+00  0.00000000E+00  0.00000000E+00
  0.00000000E+00  0.00000000E+00  0.00000000E+00
  0.00000000E+00  0.00000000E+00  0.00000000E+00
  0.00000000E+00  0.00000000E+00  0.00000000E+00
  0.00000000E+00  0.00000000E+00  0.00000000E+00
  0.00000000E+00  0.00000000E+00  0.00000000E+00
  0.00000000E+00  0.00000000E+00  0.00000000E+00
  0.00000000E+00  0.00000000E+00  0.00000000E+00
  0.00000000E+00  0.00000000E+00  0.00000000E+00
  0.00000000E+00  0.00000000E+00  0.00000000E+00
  0.00000000E+00  0.00000000E+00  0.00000000E+00
  0.00000000E+00  0.00000000E+00  0.00000000E+00
  0.00000000E+00  0.00000000E+00  0.00000000E+00
  0.00000000E+00  0.00000000E+00  0.00000000E+00
  0.00000000E+00  0.00000000E+00  0.00000000E+00
  0.00000000E+00  0.00000000E+00  0.00000000E+00
  0.00000000E+00  0.00000000E+00  0.00000000E+00
  0.00000000E+00  0.00000000E+00  0.00000000E+00
  0.00000000E+00  0.00000000E+00  0.00000000E+00
  0.00000000E+00  0.00000000E+00  0.00000000E+00
  0.00000000E+00  0.00000000E+00  0.00000000E+00
  0.00000000E+00  0.00000000E+00  0.00000000E+00
  0.00000000E+00  0.00000000E+00  0.00000000E+00
  0.00000000E+00  0.00000000E+00  0.00000000E+00
  0.00000000E+00  0.00000000E+00  0.00000000E+00
  0.00000000E+00  0.00000000E+00  0.00000000E+00
  0.00000000E+00  0.00000000E+00  0.00000000E+00
  0.00000000E+00  0.00000000E+00  0.00000000E+00
  0.00000000E+00  0.00000000E+00  0.00000000E+00
  0.00000000E+00  0.00000000E+00  0.00000000E+00
  0.00000000E+00  0.00000000E+00  0.00000000E+00
  0.00000000E+00  0.00000000E+00  0.00000000E+00
  0.00000000E+00  0.00000000E+00  0.00000000E+00
  0.00000000E+00  0.00000000E+00  0.00000000E+00
  0.00000000E+00  0.00000000E+00  0.00000000E+00
  0.00000000E+00  0.00000000E+00  0.00000000E+00
  0.00000000E+00  0.00000000E+00  0.00000000E+00
  0.00000000E+00  0.00000000E+00  0.00000000E+00
  0.00000000E+00  0.00000000E+00  0.00000000E+00
  0.00000000E+00  0.00000000E+00  0.00000000E+00
  0.00000000E+00  0.00000000E+00  0.00000000E+00
