Sb2 Se3                                 
  0.998820000000002     
    11.9454718211925162    0.0000000000000000    0.0000000000000000
     0.0000000000000000   11.9285311965989376    0.0000000000000000
     0.0000000000000000    0.0000000000000000   11.5287107052303703
   Sb   Se
    25    35
Direct
  0.7318020600998351  0.3732788400923099  0.2583267521755322
  0.5265514599708153  0.0825780053951004  0.1886413832466100
  0.5081131447665684  0.4307122505280697  0.1897251640891956
  0.5236449839153480  0.7533327113239354  0.1713891854062873
  0.4707021327304125  0.2555045072240029  0.8181816371927885
  0.4760434521050407  0.5826391928927945  0.8376319994076955
  0.4841907336716949  0.9197777527275759  0.8490934185670208
  0.9651817181485480  0.2513759066800865  0.6668665819901074
  0.9661362419738999  0.5818111744669808  0.6658773079507043
  0.9686779187221334  0.9163821558237789  0.6712784971921005
  0.0346189442735662  0.0830436618607120  0.3253165859655487
  0.0336847672263085  0.4160791136984324  0.3252818521908130
  0.0317269800746529  0.7506234707507905  0.3250215407293138
  0.6367829569062990  0.2410424736579781  0.4731177748404174
  0.6323435985535207  0.5966128534668907  0.4697941620668785
  0.6514026552234566  0.9139360136989207  0.4589059422495520
  0.3514988330156333  0.0783910273435349  0.5360335522132723
  0.3467438270390576  0.4186049868069547  0.5411958685534799
  0.3459057100868126  0.7526431170810680  0.5474246875649434
  0.8569455901525669  0.0838398870346210  0.9615519474692402
  0.8559228598946839  0.4177685038554944  0.9553468605507225
  0.8549078723337918  0.7508607215093334  0.9621118201838303
  0.1496622237559050  0.2499914046688524  0.0325344364620501
  0.1448179273911390  0.5835881547832721  0.0346074752637624
  0.1464847334479656  0.9159960545842827  0.0349154427044911
  0.6369903420079085  0.2630749807808037  0.0841395306485045
  0.6191080706135943  0.5841625613572519  0.0596564524187861
  0.6267170007766353  0.9189932716316489  0.0589955058231914
  0.3824436195218380  0.0879709421468609  0.9484032493688292
  0.3711736219529979  0.4170162377642591  0.9399173328293744
  0.3734382554186923  0.7526098231276958  0.9467487335824580
  0.8709298808657610  0.0828591527015586  0.5519795361216042
  0.8661835691719589  0.4165834504136618  0.5487265420648308
  0.8700176072174587  0.7499197340748602  0.5514525158317286
  0.1280452492271847  0.2500286284780350  0.4465132374544925
  0.1263847835637515  0.5832632733049583  0.4455279449863344
  0.1288601325820725  0.9161719014826966  0.4464733220505389
  0.7126789489048709  0.0806848529865390  0.3122129838786152
  0.7073083042603213  0.7487343153719832  0.3056616331121688
  0.2889035430047351  0.2473329783305020  0.6928903229768322
  0.2912617756770713  0.5865321561778658  0.6973084195756184
  0.3006938249377185  0.9165650002067204  0.6991466054157953
  0.7865346550490629  0.2505171668391676  0.8066371466165219
  0.7872878486977614  0.5831051606576302  0.8060654707904749
  0.7888843892159558  0.9169328579776280  0.8072363430482273
  0.2141689361318196  0.0827267835176584  0.1899515666271812
  0.2125447760120984  0.4162791983484846  0.1897750832974658
  0.2117352695938730  0.7502424183387625  0.1909219046925060
  0.4432378915661413  0.2491310494987892  0.3712175034700229
  0.4394409702190590  0.5854668244129652  0.3684130049045639
  0.4500160899252171  0.9193552318144310  0.3696808778957599
  0.5542846745596928  0.0829930482307906  0.6268968890210610
  0.5483702819156691  0.4164751586699776  0.6287935580252695
  0.5568206913047971  0.7456432108591016  0.6219000155845217
  0.0535755003207681  0.0836027652676884  0.8668619864184206
  0.0552892508920148  0.4164898412129900  0.8679858948872554
  0.0521096869016973  0.7493112982484383  0.8685254812542003
  0.9532808003128675  0.2481485965261783  0.1266381387979046
  0.9482161641383845  0.5838119838339370  0.1290098507418577
  0.9485702680589223  0.9168502034519141  0.1275635065610655
 
  0.00000000E+00  0.00000000E+00  0.00000000E+00
  0.00000000E+00  0.00000000E+00  0.00000000E+00
  0.00000000E+00  0.00000000E+00  0.00000000E+00
  0.00000000E+00  0.00000000E+00  0.00000000E+00
  0.00000000E+00  0.00000000E+00  0.00000000E+00
  0.00000000E+00  0.00000000E+00  0.00000000E+00
  0.00000000E+00  0.00000000E+00  0.00000000E+00
  0.00000000E+00  0.00000000E+00  0.00000000E+00
  0.00000000E+00  0.00000000E+00  0.00000000E+00
  0.00000000E+00  0.00000000E+00  0.00000000E+00
  0.00000000E+00  0.00000000E+00  0.00000000E+00
  0.00000000E+00  0.00000000E+00  0.00000000E+00
  0.00000000E+00  0.00000000E+00  0.00000000E+00
  0.00000000E+00  0.00000000E+00  0.00000000E+00
  0.00000000E+00  0.00000000E+00  0.00000000E+00
  0.00000000E+00  0.00000000E+00  0.00000000E+00
  0.00000000E+00  0.00000000E+00  0.00000000E+00
  0.00000000E+00  0.00000000E+00  0.00000000E+00
  0.00000000E+00  0.00000000E+00  0.00000000E+00
  0.00000000E+00  0.00000000E+00  0.00000000E+00
  0.00000000E+00  0.00000000E+00  0.00000000E+00
  0.00000000E+00  0.00000000E+00  0.00000000E+00
  0.00000000E+00  0.00000000E+00  0.00000000E+00
  0.00000000E+00  0.00000000E+00  0.00000000E+00
  0.00000000E+00  0.00000000E+00  0.00000000E+00
  0.00000000E+00  0.00000000E+00  0.00000000E+00
  0.00000000E+00  0.00000000E+00  0.00000000E+00
  0.00000000E+00  0.00000000E+00  0.00000000E+00
  0.00000000E+00  0.00000000E+00  0.00000000E+00
  0.00000000E+00  0.00000000E+00  0.00000000E+00
  0.00000000E+00  0.00000000E+00  0.00000000E+00
  0.00000000E+00  0.00000000E+00  0.00000000E+00
  0.00000000E+00  0.00000000E+00  0.00000000E+00
  0.00000000E+00  0.00000000E+00  0.00000000E+00
  0.00000000E+00  0.00000000E+00  0.00000000E+00
  0.00000000E+00  0.00000000E+00  0.00000000E+00
  0.00000000E+00  0.00000000E+00  0.00000000E+00
  0.00000000E+00  0.00000000E+00  0.00000000E+00
  0.00000000E+00  0.00000000E+00  0.00000000E+00
  0.00000000E+00  0.00000000E+00  0.00000000E+00
  0.00000000E+00  0.00000000E+00  0.00000000E+00
  0.00000000E+00  0.00000000E+00  0.00000000E+00
  0.00000000E+00  0.00000000E+00  0.00000000E+00
  0.00000000E+00  0.00000000E+00  0.00000000E+00
  0.00000000E+00  0.00000000E+00  0.00000000E+00
  0.00000000E+00  0.00000000E+00  0.00000000E+00
  0.00000000E+00  0.00000000E+00  0.00000000E+00
  0.00000000E+00  0.00000000E+00  0.00000000E+00
  0.00000000E+00  0.00000000E+00  0.00000000E+00
  0.00000000E+00  0.00000000E+00  0.00000000E+00
  0.00000000E+00  0.00000000E+00  0.00000000E+00
  0.00000000E+00  0.00000000E+00  0.00000000E+00
  0.00000000E+00  0.00000000E+00  0.00000000E+00
  0.00000000E+00  0.00000000E+00  0.00000000E+00
  0.00000000E+00  0.00000000E+00  0.00000000E+00
  0.00000000E+00  0.00000000E+00  0.00000000E+00
  0.00000000E+00  0.00000000E+00  0.00000000E+00
  0.00000000E+00  0.00000000E+00  0.00000000E+00
  0.00000000E+00  0.00000000E+00  0.00000000E+00
  0.00000000E+00  0.00000000E+00  0.00000000E+00
