Sb2 Se3                                 
  0.998820000000002     
    11.9454718211925162    0.0000000000000000    0.0000000000000000
     0.0000000000000000   11.9285311965989376    0.0000000000000000
     0.0000000000000000    0.0000000000000000   11.5287107052303703
   Sb   Se
    25    35
Direct
  0.7197732659981125  0.4166380426625188  0.2012937757431842
  0.5268816603852214  0.0842343370856477  0.1874069005715309
  0.4813072606139840  0.4166540333103104  0.2066338352157641
  0.5268858995829971  0.7490437177740473  0.1874056992291711
  0.4709821650347134  0.2544803314214527  0.8272868863145343
  0.4709720905052452  0.5788047827938969  0.8272937541987314
  0.4960917411749310  0.9166554274644237  0.8629143482441726
  0.9663147546404848  0.2513034363593938  0.6646524177622396
  0.9663155337404684  0.5820963238561128  0.6646336387784152
  0.9673041882637291  0.9167045662096386  0.6724455728736912
  0.0352435414847144  0.0827632186814378  0.3242251373626072
  0.0313077539876507  0.4167026978375171  0.3284540178095451
  0.0352338102231532  0.7506339887227133  0.3242104127054249
  0.6368478449158282  0.2387751366221869  0.4784246701721289
  0.6368237469914010  0.5944779849937829  0.4784304490275870
  0.6558152021356876  0.9166227888934412  0.4576171397229455
  0.3462801631163462  0.0757444765592376  0.5445679033902053
  0.3432020157419390  0.4166156273779975  0.5464457929542396
  0.3462684253428038  0.7574982987761980  0.5445924262183253
  0.8562636711210444  0.0836775104787200  0.9637220681763158
  0.8599487980653063  0.4167204624662311  0.9467440317514817
  0.8562780683744943  0.7497483272795068  0.9637228254110093
  0.1468501574798321  0.2487187022162605  0.0332972906938047
  0.1468589913775655  0.5846969022160793  0.0333018916538485
  0.1469579478421201  0.9167174531457196  0.0335606668152669
  0.6233882961652079  0.2612183599998149  0.0694977567481905
  0.6233856990599302  0.5720459288538705  0.0694900325101788
  0.6282714312971440  0.9166307060384004  0.0644049511802708
  0.3812303202254980  0.0841606171546270  0.9496844702514113
  0.3657799231737958  0.4166271192057124  0.9370261936112882
  0.3812260925516519  0.7491415174922428  0.9496645953993232
  0.8707461814573879  0.0830823661617802  0.5507679437818257
  0.8668529532867627  0.4166900394230955  0.5467840464529860
  0.8707615637152581  0.7503289596974596  0.5507551834578406
  0.1282062426395327  0.2505229298832994  0.4460455440144905
  0.1282161046991150  0.5828906194632878  0.4460269982430148
  0.1301629496435882  0.9166860289313384  0.4470251699888735
  0.7134378684938255  0.0866797086005326  0.3099386776869972
  0.7134421305855704  0.7465670976029884  0.3099397472297359
  0.2887540660616113  0.2443287327763708  0.6964198624318308
  0.2887461947334124  0.5889016926488464  0.6964311693549377
  0.3049336361452605  0.9166303012962808  0.7010831638296401
  0.7873982530516347  0.2504947360545415  0.8046794380657832
  0.7874111962640291  0.5829400502087091  0.8046689417365855
  0.7884448806321839  0.9166743364626699  0.8082648508063358
  0.2146924539094644  0.0828477186290123  0.1897272490866767
  0.2093257995559228  0.4166743288760401  0.1907846830472090
  0.2146930739394407  0.7505819244047315  0.1897128058738937
  0.4435886880522175  0.2498318321940148  0.3705617989128659
  0.4435759198387123  0.5834720900280073  0.3705564252428962
  0.4540785385157741  0.9166014924825250  0.3679357832267026
  0.5567992226767845  0.0858686268596441  0.6218795944819847
  0.5461192440136728  0.4166114806621317  0.6317743247119834
  0.5567916567982656  0.7473842068215165  0.6218963861316246
  0.0527138456268010  0.0837549455703822  0.8678242335371271
  0.0599230055282342  0.4166764170852164  0.8646548233645690
  0.0527360336672736  0.7496611091610144  0.8678350216522736
  0.9509547205379756  0.2478795784127526  0.1278004815084976
  0.9509699840063597  0.5855007637158485  0.1278043621887193
  0.9492331313109260  0.9166830619368997  0.1273697044553315
 
  0.00000000E+00  0.00000000E+00  0.00000000E+00
  0.00000000E+00  0.00000000E+00  0.00000000E+00
  0.00000000E+00  0.00000000E+00  0.00000000E+00
  0.00000000E+00  0.00000000E+00  0.00000000E+00
  0.00000000E+00  0.00000000E+00  0.00000000E+00
  0.00000000E+00  0.00000000E+00  0.00000000E+00
  0.00000000E+00  0.00000000E+00  0.00000000E+00
  0.00000000E+00  0.00000000E+00  0.00000000E+00
  0.00000000E+00  0.00000000E+00  0.00000000E+00
  0.00000000E+00  0.00000000E+00  0.00000000E+00
  0.00000000E+00  0.00000000E+00  0.00000000E+00
  0.00000000E+00  0.00000000E+00  0.00000000E+00
  0.00000000E+00  0.00000000E+00  0.00000000E+00
  0.00000000E+00  0.00000000E+00  0.00000000E+00
  0.00000000E+00  0.00000000E+00  0.00000000E+00
  0.00000000E+00  0.00000000E+00  0.00000000E+00
  0.00000000E+00  0.00000000E+00  0.00000000E+00
  0.00000000E+00  0.00000000E+00  0.00000000E+00
  0.00000000E+00  0.00000000E+00  0.00000000E+00
  0.00000000E+00  0.00000000E+00  0.00000000E+00
  0.00000000E+00  0.00000000E+00  0.00000000E+00
  0.00000000E+00  0.00000000E+00  0.00000000E+00
  0.00000000E+00  0.00000000E+00  0.00000000E+00
  0.00000000E+00  0.00000000E+00  0.00000000E+00
  0.00000000E+00  0.00000000E+00  0.00000000E+00
  0.00000000E+00  0.00000000E+00  0.00000000E+00
  0.00000000E+00  0.00000000E+00  0.00000000E+00
  0.00000000E+00  0.00000000E+00  0.00000000E+00
  0.00000000E+00  0.00000000E+00  0.00000000E+00
  0.00000000E+00  0.00000000E+00  0.00000000E+00
  0.00000000E+00  0.00000000E+00  0.00000000E+00
  0.00000000E+00  0.00000000E+00  0.00000000E+00
  0.00000000E+00  0.00000000E+00  0.00000000E+00
  0.00000000E+00  0.00000000E+00  0.00000000E+00
  0.00000000E+00  0.00000000E+00  0.00000000E+00
  0.00000000E+00  0.00000000E+00  0.00000000E+00
  0.00000000E+00  0.00000000E+00  0.00000000E+00
  0.00000000E+00  0.00000000E+00  0.00000000E+00
  0.00000000E+00  0.00000000E+00  0.00000000E+00
  0.00000000E+00  0.00000000E+00  0.00000000E+00
  0.00000000E+00  0.00000000E+00  0.00000000E+00
  0.00000000E+00  0.00000000E+00  0.00000000E+00
  0.00000000E+00  0.00000000E+00  0.00000000E+00
  0.00000000E+00  0.00000000E+00  0.00000000E+00
  0.00000000E+00  0.00000000E+00  0.00000000E+00
  0.00000000E+00  0.00000000E+00  0.00000000E+00
  0.00000000E+00  0.00000000E+00  0.00000000E+00
  0.00000000E+00  0.00000000E+00  0.00000000E+00
  0.00000000E+00  0.00000000E+00  0.00000000E+00
  0.00000000E+00  0.00000000E+00  0.00000000E+00
  0.00000000E+00  0.00000000E+00  0.00000000E+00
  0.00000000E+00  0.00000000E+00  0.00000000E+00
  0.00000000E+00  0.00000000E+00  0.00000000E+00
  0.00000000E+00  0.00000000E+00  0.00000000E+00
  0.00000000E+00  0.00000000E+00  0.00000000E+00
  0.00000000E+00  0.00000000E+00  0.00000000E+00
  0.00000000E+00  0.00000000E+00  0.00000000E+00
  0.00000000E+00  0.00000000E+00  0.00000000E+00
  0.00000000E+00  0.00000000E+00  0.00000000E+00
  0.00000000E+00  0.00000000E+00  0.00000000E+00
