Sb2 Se3                                 
  0.998820000000002     
    11.9454718211925162    0.0000000000000000    0.0000000000000000
     0.0000000000000000   11.9285311965989376    0.0000000000000000
     0.0000000000000000    0.0000000000000000   11.5287107052303703
   Sb   Se
    25    35
Direct
  0.7612466689997878  0.4167284067286285  0.3323168778790141
  0.5255106028804113  0.0835081812246392  0.1709218119457662
  0.4927691542109506  0.4166716910416908  0.1347947836110805
  0.5255214577941131  0.7498450846729298  0.1709667843585113
  0.4756724282327643  0.2413920680531715  0.8151260573296221
  0.4756860215298291  0.5919844034111086  0.8151025250840672
  0.4676070612432202  0.9166811480894382  0.8286408863408625
  0.9639629898721227  0.2435772766185827  0.6730572484787389
  0.9639347537074029  0.5896795342490959  0.6729962917810821
  0.9740965500613782  0.9166389446242350  0.6699207420595004
  0.0301586851247385  0.0835793070160762  0.3282405044143930
  0.0393923726692959  0.4166362775977229  0.3197006546041424
  0.0301687178256375  0.7496981083219100  0.3282199617251504
  0.6456333250835674  0.2462607676475870  0.4651114742001360
  0.6456694773350904  0.5871869300577690  0.4651284979870230
  0.6459951442135958  0.9167355511167168  0.4557050811971640
  0.3499369046188081  0.0829702358594918  0.5436025106294538
  0.3565260175711487  0.4167009115346770  0.5324541887269301
  0.3499505732847645  0.7504372781133460  0.5435952553267730
  0.8536311787683004  0.0815189437640765  0.9593389216933780
  0.8554323022092346  0.4166430775337882  0.9637017156183174
  0.8536395975659047  0.7517220750413280  0.9593260690034716
  0.1473111156701139  0.2501197748830065  0.0289936886844324
  0.1473211400932553  0.5831616604365248  0.0289775522859110
  0.1526652447174777  0.9166479642509924  0.0412667862221422
  0.6330215629370044  0.2581141101167061  0.0750052913831035
  0.6330499133247727  0.5752366401483130  0.0750808758789372
  0.6290989001775344  0.9166713461546921  0.0601086418986809
  0.3776996439758595  0.0875947842829585  0.9523128084808238
  0.3734709607972564  0.4166750178932409  0.9404137724919374
  0.3777357291698749  0.7457558116416184  0.9523213848343447
  0.8719983553767903  0.0802222058482209  0.5534079759646640
  0.8634623386548200  0.4166280165853888  0.5447150996117102
  0.8720062845288162  0.7530770528937357  0.5533678862269168
  0.1291926486533513  0.2475349033416739  0.4431052914692547
  0.1292096153211064  0.5857368551132758  0.4430792872570132
  0.1278866285490555  0.9166347625034851  0.4452931756852495
  0.7091843231517678  0.0810613216780199  0.3088973812423756
  0.7092042481397508  0.7523948053125084  0.3089186493317567
  0.2887656254478910  0.2524841863741550  0.6974679033849773
  0.2887769612556103  0.5809396074437788  0.6974715507066096
  0.2821567664851875  0.9166720630750806  0.7019734254405836
  0.7847171952743515  0.2523947909341386  0.8064735326644079
  0.7847106085438760  0.5809378105594625  0.8064538669881193
  0.7899979471231072  0.9166088238114539  0.8048155862148338
  0.2106505636478097  0.0816614299990960  0.1909081666789743
  0.2166738116855565  0.4166029639521744  0.1843266699639922
  0.2106743432383167  0.7516659094544923  0.1908985460192102
  0.4456913726313819  0.2489091571051981  0.3774640204174701
  0.4457342546039035  0.5844850893645214  0.3774652331965851
  0.4436237408374727  0.9166752325861928  0.3763816558981398
  0.5443624599873317  0.0787754539102083  0.6447265008452702
  0.5507147345269147  0.4166694155942580  0.6326020671719678
  0.5443691387005605  0.7546757068030622  0.6447414968214772
  0.0492017923096352  0.0888370647052899  0.8599221583672964
  0.0536624898181039  0.4166275558545257  0.8702529572100391
  0.0492256591820953  0.7443883082661381  0.8599454868255727
  0.9511340627559045  0.2496431966551376  0.1269416394711414
  0.9511709955438868  0.5836570249509782  0.1269638386313713
  0.9483248383604431  0.9166259731983578  0.1185692711381078
 
  0.00000000E+00  0.00000000E+00  0.00000000E+00
  0.00000000E+00  0.00000000E+00  0.00000000E+00
  0.00000000E+00  0.00000000E+00  0.00000000E+00
  0.00000000E+00  0.00000000E+00  0.00000000E+00
  0.00000000E+00  0.00000000E+00  0.00000000E+00
  0.00000000E+00  0.00000000E+00  0.00000000E+00
  0.00000000E+00  0.00000000E+00  0.00000000E+00
  0.00000000E+00  0.00000000E+00  0.00000000E+00
  0.00000000E+00  0.00000000E+00  0.00000000E+00
  0.00000000E+00  0.00000000E+00  0.00000000E+00
  0.00000000E+00  0.00000000E+00  0.00000000E+00
  0.00000000E+00  0.00000000E+00  0.00000000E+00
  0.00000000E+00  0.00000000E+00  0.00000000E+00
  0.00000000E+00  0.00000000E+00  0.00000000E+00
  0.00000000E+00  0.00000000E+00  0.00000000E+00
  0.00000000E+00  0.00000000E+00  0.00000000E+00
  0.00000000E+00  0.00000000E+00  0.00000000E+00
  0.00000000E+00  0.00000000E+00  0.00000000E+00
  0.00000000E+00  0.00000000E+00  0.00000000E+00
  0.00000000E+00  0.00000000E+00  0.00000000E+00
  0.00000000E+00  0.00000000E+00  0.00000000E+00
  0.00000000E+00  0.00000000E+00  0.00000000E+00
  0.00000000E+00  0.00000000E+00  0.00000000E+00
  0.00000000E+00  0.00000000E+00  0.00000000E+00
  0.00000000E+00  0.00000000E+00  0.00000000E+00
  0.00000000E+00  0.00000000E+00  0.00000000E+00
  0.00000000E+00  0.00000000E+00  0.00000000E+00
  0.00000000E+00  0.00000000E+00  0.00000000E+00
  0.00000000E+00  0.00000000E+00  0.00000000E+00
  0.00000000E+00  0.00000000E+00  0.00000000E+00
  0.00000000E+00  0.00000000E+00  0.00000000E+00
  0.00000000E+00  0.00000000E+00  0.00000000E+00
  0.00000000E+00  0.00000000E+00  0.00000000E+00
  0.00000000E+00  0.00000000E+00  0.00000000E+00
  0.00000000E+00  0.00000000E+00  0.00000000E+00
  0.00000000E+00  0.00000000E+00  0.00000000E+00
  0.00000000E+00  0.00000000E+00  0.00000000E+00
  0.00000000E+00  0.00000000E+00  0.00000000E+00
  0.00000000E+00  0.00000000E+00  0.00000000E+00
  0.00000000E+00  0.00000000E+00  0.00000000E+00
  0.00000000E+00  0.00000000E+00  0.00000000E+00
  0.00000000E+00  0.00000000E+00  0.00000000E+00
  0.00000000E+00  0.00000000E+00  0.00000000E+00
  0.00000000E+00  0.00000000E+00  0.00000000E+00
  0.00000000E+00  0.00000000E+00  0.00000000E+00
  0.00000000E+00  0.00000000E+00  0.00000000E+00
  0.00000000E+00  0.00000000E+00  0.00000000E+00
  0.00000000E+00  0.00000000E+00  0.00000000E+00
  0.00000000E+00  0.00000000E+00  0.00000000E+00
  0.00000000E+00  0.00000000E+00  0.00000000E+00
  0.00000000E+00  0.00000000E+00  0.00000000E+00
  0.00000000E+00  0.00000000E+00  0.00000000E+00
  0.00000000E+00  0.00000000E+00  0.00000000E+00
  0.00000000E+00  0.00000000E+00  0.00000000E+00
  0.00000000E+00  0.00000000E+00  0.00000000E+00
  0.00000000E+00  0.00000000E+00  0.00000000E+00
  0.00000000E+00  0.00000000E+00  0.00000000E+00
  0.00000000E+00  0.00000000E+00  0.00000000E+00
  0.00000000E+00  0.00000000E+00  0.00000000E+00
  0.00000000E+00  0.00000000E+00  0.00000000E+00
