Sb2 Se3                                 
   1.00000000000000     
    11.9313764572000007    0.0000000000000000    0.0000000000000000
     0.0000000000000000   11.9144554138000007    0.0000000000000000
     0.0000000000000000    0.0000000000000000   11.5151071548000008
   Sb   Se
    24    35
Direct
  0.5332952138088447  0.0835132448087645  0.1718533711433343
  0.5332952633483534  0.4164867642182009  0.1718533755551386
  0.5301648185043543  0.7500000222812104  0.1711243045576289
  0.4606619820357920  0.2499999979202815  0.8252127158624681
  0.4666994945862237  0.5827944203039382  0.8271242924170102
  0.4666995291372563  0.9172055927943086  0.8271243119060806
  0.9731547694166000  0.2499999812557009  0.6876048986179497
  0.9762595139519528  0.5821502548402240  0.6646030364465684
  0.9762594706653238  0.9178497114123135  0.6646031047320906
  0.0257040056023000  0.0690323041128011  0.3040794265226855
  0.0257039624820022  0.4309676585847310  0.3040794005428274
  0.0255156702500959  0.7499999715668682  0.3360332508103437
  0.6474515649164619  0.2500000166563350  0.4623393609243749
  0.6457954402654832  0.5844347676788820  0.4631555314901528
  0.6457954475340156  0.9155652913509498  0.4631554854659520
  0.3542382512564875  0.0812417482382822  0.5350958484835059
  0.3542382570644801  0.4187582573736009  0.5350958006254731
  0.3548166059233204  0.7500000113287887  0.5343658899691939
  0.8524085355803418  0.0854382994840594  0.9651502449486485
  0.8524085331811856  0.4145616968905680  0.9651502184002031
  0.8387494522604481  0.7499999808306201  0.9460863270269704
  0.1480222866433814  0.2499999892986978  0.0313807414781395
  0.1525225410094299  0.5876779542548777  0.0427286301899163
  0.1525225517632023  0.9123220095529108  0.0427286076648678
  0.6273391192728182  0.2499999948421578  0.0504680247875276
  0.6275466171782500  0.5841459872561074  0.0531090021214349
  0.6275465949584551  0.9158540442411631  0.0531089657904826
  0.3691511712586115  0.0822322311193130  0.9461958811236236
  0.3691511522351892  0.4177677579937591  0.9461958799895337
  0.3688922729001218  0.7500000380835695  0.9456552516705549
  0.8785030854393229  0.0870190793138428  0.5611264285831852
  0.8785031597776868  0.4129808873772050  0.5611263844627925
  0.8730318907960665  0.7499999861629008  0.5533828132979377
  0.1230488052732269  0.5814345176663905  0.4441232228129184
  0.1230487858056084  0.9185654594086304  0.4441232380662370
  0.7133930732573043  0.0832927431430640  0.3076102659797041
  0.7133930767043181  0.4167073116959406  0.3076102833783431
  0.7102487455113226  0.7499999866722268  0.3073337951481998
  0.2816374993814463  0.2499999860871978  0.6874192616218903
  0.2875994594651697  0.5836747258868278  0.6899359208874539
  0.2875994934688237  0.9163253024800216  0.6899359664835097
  0.7892865353163578  0.2499999829628158  0.8112203569134300
  0.7904594105059369  0.5844942468591728  0.8018293294099217
  0.7904594099757528  0.9155057436804441  0.8018293677299966
  0.2153559879868130  0.0902445429319347  0.1971765951049513
  0.2153559866153468  0.4097554187083333  0.1971766303452505
  0.2114358209622090  0.7500000102919275  0.2004265383079789
  0.4508850188275473  0.2500000028518536  0.3690268057891106
  0.4483671674221488  0.5826723928205138  0.3699522661329149
  0.4483671759609056  0.9173276450038300  0.3699522871570300
  0.5502856082526205  0.0836201158100091  0.6293594675005100
  0.5502855837966431  0.4163799177753562  0.6293594047687363
  0.5520403223829855  0.7499999949685433  0.6278448606785546
  0.0519659009718357  0.0794885096931555  0.8753898716669012
  0.0519658988013906  0.4205114419008322  0.8753898475332081
  0.0521344039881221  0.7500000168630421  0.8934266029320448
  0.9464759053506561  0.2499999992318835  0.1230318281473818
  0.9528424118548229  0.5763470026299682  0.1460468358631918
  0.9528424461568342  0.9236529585481793  0.1460468540320113
 
  0.00000000E+00  0.00000000E+00  0.00000000E+00
  0.00000000E+00  0.00000000E+00  0.00000000E+00
  0.00000000E+00  0.00000000E+00  0.00000000E+00
  0.00000000E+00  0.00000000E+00  0.00000000E+00
  0.00000000E+00  0.00000000E+00  0.00000000E+00
  0.00000000E+00  0.00000000E+00  0.00000000E+00
  0.00000000E+00  0.00000000E+00  0.00000000E+00
  0.00000000E+00  0.00000000E+00  0.00000000E+00
  0.00000000E+00  0.00000000E+00  0.00000000E+00
  0.00000000E+00  0.00000000E+00  0.00000000E+00
  0.00000000E+00  0.00000000E+00  0.00000000E+00
  0.00000000E+00  0.00000000E+00  0.00000000E+00
  0.00000000E+00  0.00000000E+00  0.00000000E+00
  0.00000000E+00  0.00000000E+00  0.00000000E+00
  0.00000000E+00  0.00000000E+00  0.00000000E+00
  0.00000000E+00  0.00000000E+00  0.00000000E+00
  0.00000000E+00  0.00000000E+00  0.00000000E+00
  0.00000000E+00  0.00000000E+00  0.00000000E+00
  0.00000000E+00  0.00000000E+00  0.00000000E+00
  0.00000000E+00  0.00000000E+00  0.00000000E+00
  0.00000000E+00  0.00000000E+00  0.00000000E+00
  0.00000000E+00  0.00000000E+00  0.00000000E+00
  0.00000000E+00  0.00000000E+00  0.00000000E+00
  0.00000000E+00  0.00000000E+00  0.00000000E+00
  0.00000000E+00  0.00000000E+00  0.00000000E+00
  0.00000000E+00  0.00000000E+00  0.00000000E+00
  0.00000000E+00  0.00000000E+00  0.00000000E+00
  0.00000000E+00  0.00000000E+00  0.00000000E+00
  0.00000000E+00  0.00000000E+00  0.00000000E+00
  0.00000000E+00  0.00000000E+00  0.00000000E+00
  0.00000000E+00  0.00000000E+00  0.00000000E+00
  0.00000000E+00  0.00000000E+00  0.00000000E+00
  0.00000000E+00  0.00000000E+00  0.00000000E+00
  0.00000000E+00  0.00000000E+00  0.00000000E+00
  0.00000000E+00  0.00000000E+00  0.00000000E+00
  0.00000000E+00  0.00000000E+00  0.00000000E+00
  0.00000000E+00  0.00000000E+00  0.00000000E+00
  0.00000000E+00  0.00000000E+00  0.00000000E+00
  0.00000000E+00  0.00000000E+00  0.00000000E+00
  0.00000000E+00  0.00000000E+00  0.00000000E+00
  0.00000000E+00  0.00000000E+00  0.00000000E+00
  0.00000000E+00  0.00000000E+00  0.00000000E+00
  0.00000000E+00  0.00000000E+00  0.00000000E+00
  0.00000000E+00  0.00000000E+00  0.00000000E+00
  0.00000000E+00  0.00000000E+00  0.00000000E+00
  0.00000000E+00  0.00000000E+00  0.00000000E+00
  0.00000000E+00  0.00000000E+00  0.00000000E+00
  0.00000000E+00  0.00000000E+00  0.00000000E+00
  0.00000000E+00  0.00000000E+00  0.00000000E+00
  0.00000000E+00  0.00000000E+00  0.00000000E+00
  0.00000000E+00  0.00000000E+00  0.00000000E+00
  0.00000000E+00  0.00000000E+00  0.00000000E+00
  0.00000000E+00  0.00000000E+00  0.00000000E+00
  0.00000000E+00  0.00000000E+00  0.00000000E+00
  0.00000000E+00  0.00000000E+00  0.00000000E+00
  0.00000000E+00  0.00000000E+00  0.00000000E+00
  0.00000000E+00  0.00000000E+00  0.00000000E+00
  0.00000000E+00  0.00000000E+00  0.00000000E+00
  0.00000000E+00  0.00000000E+00  0.00000000E+00
