Sb2 Se3                                 
   1.00000000000000     
    11.9313764572000007    0.0000000000000000    0.0000000000000000
     0.0000000000000000   11.9144554138000007    0.0000000000000000
     0.0000000000000000    0.0000000000000000   11.5151071548000008
   Sb   Se
    24    35
Direct
  0.5317411983710785  0.0835132089340099  0.1694522675827489
  0.5312751955727246  0.4165407785249686  0.1721568999485077
  0.5297377085187243  0.7503604508634867  0.1699375736174256
  0.4622786785697134  0.2501417710275366  0.8255814892328599
  0.4677489005514167  0.5831738132253526  0.8264411587067220
  0.4684214658478093  0.9175647910755068  0.8270994936112605
  0.9712482001727327  0.2501407764072781  0.6861703564882087
  0.9737892686378938  0.5848209214473470  0.6686781240903197
  0.9719743594972075  0.9197932277717651  0.6690556048938495
  0.0261723116988694  0.0669541425754212  0.3055347170862504
  0.0361737025077484  0.4091232350634851  0.3376298454598844
  0.0247974048905817  0.7432235921396926  0.3338040386253760
  0.6467240996026478  0.2496518471965584  0.4605850615664394
  0.6463636233974739  0.5839364818938944  0.4608879418101455
  0.6455076537376681  0.9162110076056785  0.4627776450302790
  0.3531238696605717  0.0814154425071900  0.5338282534517753
  0.3543343528313886  0.4185778760192414  0.5354189517935080
  0.3548648339207066  0.7503028082312354  0.5343607705539544
  0.8513783650922621  0.0872254122950019  0.9590250093025388
  0.8579983404946061  0.4200363039062435  0.9739624756603591
  0.8484889303432546  0.7468119920151921  0.9556515273297049
  0.1478730791436930  0.2524149015842531  0.0391362032601256
  0.1472519693507355  0.5822902432009530  0.0424195935474135
  0.1496523650687412  0.9096261268946469  0.0402910016871057
  0.6262188846453617  0.2500288153482333  0.0502365615458714
  0.6265358927793525  0.5842901742997202  0.0522216397778113
  0.6278383750519575  0.9164135365612356  0.0522601113280243
  0.3691714148951292  0.0825606642837605  0.9448965300975655
  0.3696449266712715  0.4174157474537633  0.9443317195652181
  0.3702506863552388  0.7518226314639922  0.9442800984547717
  0.8807376922061065  0.0885737815748949  0.5552198670394793
  0.8754078135830675  0.4181590548178777  0.5611472886153583
  0.8731559883334193  0.7500232531859274  0.5527536830016804
  0.1270231241270787  0.5796233739455240  0.4479975492337457
  0.1226701063965313  0.9125736279601135  0.4403963919205717
  0.7118429630364195  0.0834305532002174  0.3060644328630427
  0.7125358673573013  0.4167505750366240  0.3054975500205490
  0.7100192707433658  0.7503744305201532  0.3059925951441294
  0.2827517129864547  0.2498861237713511  0.6871647829223688
  0.2883775831534158  0.5838157241328424  0.6906174257975757
  0.2884968431204223  0.9170236995757332  0.6895202633612753
  0.7887772976762853  0.2512013634669399  0.8091976958608231
  0.7916916142116400  0.5871191030773443  0.8072111124192114
  0.7901318367044922  0.9163545884349370  0.8034988526897194
  0.2154555703109254  0.0916947410296583  0.1995969961640873
  0.2119442303700533  0.4146847129843271  0.1979662235350183
  0.2092895886725141  0.7470990466587720  0.1970671312465723
  0.4495304571390278  0.2506976092998091  0.3677692382140967
  0.4481350993450137  0.5830065215514417  0.3687295409969504
  0.4478202718481324  0.9168100597251243  0.3696802361574395
  0.5501739741072743  0.0841089992574185  0.6261857379601352
  0.5510353420418586  0.4169302058130456  0.6287647508808014
  0.5524789428180927  0.7500123832836535  0.6273022069780942
  0.0517710691189336  0.0829868097916333  0.8720688577326619
  0.0524229090120839  0.4189057517571788  0.8735883964306550
  0.0559030954287680  0.7562682237390621  0.8840129460545462
  0.9461305580384652  0.2515505399433364  0.1263228739608640
  0.9464952487094401  0.5811131516804011  0.1310855368799137
  0.9520420305248353  0.9228391989680312  0.1441416828126209
 
  0.00000000E+00  0.00000000E+00  0.00000000E+00
  0.00000000E+00  0.00000000E+00  0.00000000E+00
  0.00000000E+00  0.00000000E+00  0.00000000E+00
  0.00000000E+00  0.00000000E+00  0.00000000E+00
  0.00000000E+00  0.00000000E+00  0.00000000E+00
  0.00000000E+00  0.00000000E+00  0.00000000E+00
  0.00000000E+00  0.00000000E+00  0.00000000E+00
  0.00000000E+00  0.00000000E+00  0.00000000E+00
  0.00000000E+00  0.00000000E+00  0.00000000E+00
  0.00000000E+00  0.00000000E+00  0.00000000E+00
  0.00000000E+00  0.00000000E+00  0.00000000E+00
  0.00000000E+00  0.00000000E+00  0.00000000E+00
  0.00000000E+00  0.00000000E+00  0.00000000E+00
  0.00000000E+00  0.00000000E+00  0.00000000E+00
  0.00000000E+00  0.00000000E+00  0.00000000E+00
  0.00000000E+00  0.00000000E+00  0.00000000E+00
  0.00000000E+00  0.00000000E+00  0.00000000E+00
  0.00000000E+00  0.00000000E+00  0.00000000E+00
  0.00000000E+00  0.00000000E+00  0.00000000E+00
  0.00000000E+00  0.00000000E+00  0.00000000E+00
  0.00000000E+00  0.00000000E+00  0.00000000E+00
  0.00000000E+00  0.00000000E+00  0.00000000E+00
  0.00000000E+00  0.00000000E+00  0.00000000E+00
  0.00000000E+00  0.00000000E+00  0.00000000E+00
  0.00000000E+00  0.00000000E+00  0.00000000E+00
  0.00000000E+00  0.00000000E+00  0.00000000E+00
  0.00000000E+00  0.00000000E+00  0.00000000E+00
  0.00000000E+00  0.00000000E+00  0.00000000E+00
  0.00000000E+00  0.00000000E+00  0.00000000E+00
  0.00000000E+00  0.00000000E+00  0.00000000E+00
  0.00000000E+00  0.00000000E+00  0.00000000E+00
  0.00000000E+00  0.00000000E+00  0.00000000E+00
  0.00000000E+00  0.00000000E+00  0.00000000E+00
  0.00000000E+00  0.00000000E+00  0.00000000E+00
  0.00000000E+00  0.00000000E+00  0.00000000E+00
  0.00000000E+00  0.00000000E+00  0.00000000E+00
  0.00000000E+00  0.00000000E+00  0.00000000E+00
  0.00000000E+00  0.00000000E+00  0.00000000E+00
  0.00000000E+00  0.00000000E+00  0.00000000E+00
  0.00000000E+00  0.00000000E+00  0.00000000E+00
  0.00000000E+00  0.00000000E+00  0.00000000E+00
  0.00000000E+00  0.00000000E+00  0.00000000E+00
  0.00000000E+00  0.00000000E+00  0.00000000E+00
  0.00000000E+00  0.00000000E+00  0.00000000E+00
  0.00000000E+00  0.00000000E+00  0.00000000E+00
  0.00000000E+00  0.00000000E+00  0.00000000E+00
  0.00000000E+00  0.00000000E+00  0.00000000E+00
  0.00000000E+00  0.00000000E+00  0.00000000E+00
  0.00000000E+00  0.00000000E+00  0.00000000E+00
  0.00000000E+00  0.00000000E+00  0.00000000E+00
  0.00000000E+00  0.00000000E+00  0.00000000E+00
  0.00000000E+00  0.00000000E+00  0.00000000E+00
  0.00000000E+00  0.00000000E+00  0.00000000E+00
  0.00000000E+00  0.00000000E+00  0.00000000E+00
  0.00000000E+00  0.00000000E+00  0.00000000E+00
  0.00000000E+00  0.00000000E+00  0.00000000E+00
  0.00000000E+00  0.00000000E+00  0.00000000E+00
  0.00000000E+00  0.00000000E+00  0.00000000E+00
  0.00000000E+00  0.00000000E+00  0.00000000E+00
