Sb2 Se3                                 
   1.00000000000000     
    11.9313764572000007    0.0000000000000000    0.0000000000000000
     0.0000000000000000   11.9144554138000007    0.0000000000000000
     0.0000000000000000    0.0000000000000000   11.5151071548000008
   Sb   Se
    24    35
Direct
  0.5306120840778034  0.0842107535213940  0.1713673599833224
  0.5306120475415008  0.4157891229344880  0.1713673286023614
  0.5311809855003886  0.7499999699218449  0.1715530444330637
  0.4622716178962457  0.2499999633864579  0.8256245134711306
  0.4696191708026729  0.5834776728882014  0.8263307120784417
  0.4696192302940232  0.9165223075890053  0.8263307154871276
  0.9678756481387552  0.2500000283538039  0.6838345077125400
  0.9787067771610862  0.5812952430657182  0.6619073231928994
  0.9787067780030413  0.9187048702291976  0.6619073007505422
  0.0300912126766632  0.1129244300404113  0.3218894790114008
  0.0300911588423633  0.3870756492652332  0.3218895192000989
  0.0312611543689761  0.7500000242528521  0.3368129895406893
  0.6457959787270590  0.2499999246135717  0.4615385853625124
  0.6448624402665005  0.5832640674944497  0.4638937118390583
  0.6448624423545389  0.9167358393705874  0.4638937597320920
  0.3519343617031579  0.0802136348274348  0.5337135763486053
  0.3519343845009569  0.4197862578847366  0.5337135654449605
  0.3491532604019079  0.7499999724747131  0.5351024162883528
  0.8513024481184599  0.0735745725041727  0.9573787955104458
  0.8513024965446838  0.4264255669473943  0.9573788020988315
  0.8588119309456251  0.7500000849073059  0.9705502802391522
  0.1516519598729209  0.2500000354746251  0.0394919486123527
  0.1443981991598628  0.5853981292073537  0.0407534086729962
  0.1443981653698482  0.9146019439928089  0.0407533814768143
  0.6267631665522236  0.2499999329060276  0.0524044302383955
  0.6277564958317684  0.5831222742340282  0.0538534709879488
  0.6277565328998579  0.9168776173574229  0.0538534268577450
  0.3700114305705012  0.0830684317999407  0.9447283551758747
  0.3700114267859837  0.4169314865659204  0.9447283597204280
  0.3727754535153849  0.7499999934697842  0.9445978260464067
  0.8768875903561918  0.0865475486207727  0.5553137217816549
  0.8768876014491517  0.4134525568719232  0.5553137513884049
  0.8725425086024611  0.7500000481943824  0.5572250000619653
  0.1242439445242013  0.5801429983184725  0.4473898224557235
  0.1242439474302158  0.9198570865751868  0.4473898546228198
  0.7109884690013331  0.0833828782500615  0.3070942021713432
  0.7109883951093525  0.4166169759415455  0.3070942138145294
  0.7104542712014223  0.7499999788616887  0.3081090457741353
  0.2828418566926896  0.2499999646203977  0.6870791689096368
  0.2887238723134836  0.5830985813416675  0.6917335365907118
  0.2887238774950497  0.9169013434978833  0.6917335724393341
  0.7870311877114454  0.2500000006440701  0.8070197106709190
  0.7943706520652404  0.5855118362523140  0.8052707637298234
  0.7943705883685155  0.9144882517185544  0.8052707332593380
  0.2131229288045743  0.0878108239552468  0.1992531334045292
  0.2131229132100368  0.4121892924072189  0.1992530842022162
  0.2102557931857473  0.7500000212023892  0.1962668738834044
  0.4481723121606738  0.2499999044140700  0.3685125320389511
  0.4471745737759137  0.5838175946874866  0.3704958458852892
  0.4471745604554489  0.9161823739354119  0.3704958821447326
  0.5492977308420692  0.0832858639382212  0.6270048910974120
  0.5492977061131876  0.4167139811128763  0.6270047894092381
  0.5495662307320865  0.7500000064390913  0.6286551184571058
  0.0529205499120689  0.0849489095369987  0.8742241739330765
  0.0529205995869545  0.4150511295166924  0.8742241938809037
  0.0582040147421506  0.7500000479581121  0.8777012614012666
  0.9516021182765442  0.2500000264025446  0.1359319738860150
  0.9452834645923901  0.5829971912980184  0.1297353766406796
  0.9452834608646087  0.9170029120058515  0.1297353899482409
 
  0.00000000E+00  0.00000000E+00  0.00000000E+00
  0.00000000E+00  0.00000000E+00  0.00000000E+00
  0.00000000E+00  0.00000000E+00  0.00000000E+00
  0.00000000E+00  0.00000000E+00  0.00000000E+00
  0.00000000E+00  0.00000000E+00  0.00000000E+00
  0.00000000E+00  0.00000000E+00  0.00000000E+00
  0.00000000E+00  0.00000000E+00  0.00000000E+00
  0.00000000E+00  0.00000000E+00  0.00000000E+00
  0.00000000E+00  0.00000000E+00  0.00000000E+00
  0.00000000E+00  0.00000000E+00  0.00000000E+00
  0.00000000E+00  0.00000000E+00  0.00000000E+00
  0.00000000E+00  0.00000000E+00  0.00000000E+00
  0.00000000E+00  0.00000000E+00  0.00000000E+00
  0.00000000E+00  0.00000000E+00  0.00000000E+00
  0.00000000E+00  0.00000000E+00  0.00000000E+00
  0.00000000E+00  0.00000000E+00  0.00000000E+00
  0.00000000E+00  0.00000000E+00  0.00000000E+00
  0.00000000E+00  0.00000000E+00  0.00000000E+00
  0.00000000E+00  0.00000000E+00  0.00000000E+00
  0.00000000E+00  0.00000000E+00  0.00000000E+00
  0.00000000E+00  0.00000000E+00  0.00000000E+00
  0.00000000E+00  0.00000000E+00  0.00000000E+00
  0.00000000E+00  0.00000000E+00  0.00000000E+00
  0.00000000E+00  0.00000000E+00  0.00000000E+00
  0.00000000E+00  0.00000000E+00  0.00000000E+00
  0.00000000E+00  0.00000000E+00  0.00000000E+00
  0.00000000E+00  0.00000000E+00  0.00000000E+00
  0.00000000E+00  0.00000000E+00  0.00000000E+00
  0.00000000E+00  0.00000000E+00  0.00000000E+00
  0.00000000E+00  0.00000000E+00  0.00000000E+00
  0.00000000E+00  0.00000000E+00  0.00000000E+00
  0.00000000E+00  0.00000000E+00  0.00000000E+00
  0.00000000E+00  0.00000000E+00  0.00000000E+00
  0.00000000E+00  0.00000000E+00  0.00000000E+00
  0.00000000E+00  0.00000000E+00  0.00000000E+00
  0.00000000E+00  0.00000000E+00  0.00000000E+00
  0.00000000E+00  0.00000000E+00  0.00000000E+00
  0.00000000E+00  0.00000000E+00  0.00000000E+00
  0.00000000E+00  0.00000000E+00  0.00000000E+00
  0.00000000E+00  0.00000000E+00  0.00000000E+00
  0.00000000E+00  0.00000000E+00  0.00000000E+00
  0.00000000E+00  0.00000000E+00  0.00000000E+00
  0.00000000E+00  0.00000000E+00  0.00000000E+00
  0.00000000E+00  0.00000000E+00  0.00000000E+00
  0.00000000E+00  0.00000000E+00  0.00000000E+00
  0.00000000E+00  0.00000000E+00  0.00000000E+00
  0.00000000E+00  0.00000000E+00  0.00000000E+00
  0.00000000E+00  0.00000000E+00  0.00000000E+00
  0.00000000E+00  0.00000000E+00  0.00000000E+00
  0.00000000E+00  0.00000000E+00  0.00000000E+00
  0.00000000E+00  0.00000000E+00  0.00000000E+00
  0.00000000E+00  0.00000000E+00  0.00000000E+00
  0.00000000E+00  0.00000000E+00  0.00000000E+00
  0.00000000E+00  0.00000000E+00  0.00000000E+00
  0.00000000E+00  0.00000000E+00  0.00000000E+00
  0.00000000E+00  0.00000000E+00  0.00000000E+00
  0.00000000E+00  0.00000000E+00  0.00000000E+00
  0.00000000E+00  0.00000000E+00  0.00000000E+00
  0.00000000E+00  0.00000000E+00  0.00000000E+00
