Sb2 Se3                                 
  0.99882000000000204     
    11.9454718211925162    0.0000000000000000    0.0000000000000000
     0.0000000000000000   11.9285311965989376    0.0000000000000000
     0.0000000000000000    0.0000000000000000   11.5287107052303703
   Sb   Se
    23    36
Direct
  0.5185071677692448  0.0833672986442405  0.1553601067820573
  0.5388958904973163  0.4162077727154363  0.1770946644401163
  0.5388973374451266  0.7505018660886404  0.1771166317900208
  0.4586491260356752  0.2528899867839560  0.8153102914691083
  0.4683233483505141  0.5833755452034556  0.8268939778709985
  0.4586787679867951  0.9138515435624812  0.8153722177596909
  0.9694368580229908  0.2512580637346151  0.6690439409855868
  0.9675782902573153  0.5832964330314485  0.6693263565683993
  0.9694321216910152  0.9153283533522855  0.6690331628345478
  0.0288375785233668  0.0832853007345901  0.3280075306709430
  0.0301530397338775  0.4167244468608333  0.3267603806938044
  0.0301509296771061  0.7498567788617138  0.3267519297782120
  0.6532399801120120  0.2531336365677910  0.4433555894537665
  0.6532697927904536  0.9136352420585468  0.4433274321494382
  0.3496336462539541  0.0833554657890776  0.5490867021382828
  0.3656590217750303  0.4270074453375234  0.5304919650835590
  0.3657174895056300  0.7397809226699215  0.5305453151806968
  0.8547994228024351  0.0832880141821532  0.9641386174695332
  0.8553067623948772  0.4170688226397485  0.9623744603868022
  0.8553164759656455  0.7495087361749622  0.9623843317561513
  0.1454787942912322  0.2497991931891239  0.0355376739524690
  0.1477975256754757  0.5832696066835731  0.0379899306688963
  0.1454877207976923  0.9167533036250218  0.0355404171251891
  0.6214112928291838  0.2506369335309034  0.0458315038366431
  0.6323310450065938  0.5833712787036237  0.0562507749156357
  0.6213978205011662  0.9160795057635934  0.0458509866737749
  0.3698443125178215  0.0834364143556174  0.9544442199207959
  0.3694565477085459  0.4170101747325026  0.9447413279027125
  0.3694760330719332  0.7497168150321579  0.9447975362205504
  0.8718794364088220  0.0833012526676716  0.5529214357304567
  0.8693428672682870  0.4155557840812942  0.5543171447749373
  0.8693455181652450  0.7510320585727732  0.5543033671489428
  0.1274812933155689  0.2494201795826936  0.4444105041195900
  0.1266352555871429  0.5832998330096925  0.4470056243677844
  0.1274976360642899  0.9171449367105536  0.4443973904669123
  0.7090248496083869  0.0834016669419285  0.2956325729632971
  0.7171173384834181  0.4143418246632933  0.3063475234074949
  0.7171538284801018  0.7524296979857982  0.3063277004168866
  0.2760172331364459  0.2476454788066911  0.6931181812871964
  0.2883855700244503  0.5834235613425579  0.6915695814529382
  0.2760549185939941  0.9190067400638424  0.6931254828880231
  0.7902412462872563  0.2488160974861058  0.8075234557061756
  0.7890175004554993  0.5833209767526872  0.8077999131795985
  0.7902506385260927  0.9177457281786870  0.8075241688475472
  0.2107879260931459  0.0833157120666001  0.1914274581012770
  0.2115690500013297  0.4172878113355138  0.1934940959729451
  0.2115740611153172  0.7492626805081043  0.1934832118306647
  0.4480058924644211  0.2519873760282337  0.3702104029136561
  0.4808258028283001  0.5833839530294993  0.4139760499557911
  0.4480338530762419  0.9147647811435529  0.3702002290084521
  0.5449012203609264  0.0834154464449432  0.6493165657406504
  0.5487082803365608  0.4034686666515086  0.6518168961082254
  0.5487587124562954  0.7633307609889569  0.6518554299635929
  0.0531194468993006  0.0833148978311939  0.8732442454084886
  0.0530645095929974  0.4170666221564702  0.8697917555876001
  0.0530826524419808  0.7494958888515850  0.8698100937576015
  0.9474960776827522  0.2513553418755781  0.1302566960810271
  0.9481206188602015  0.5833075266883816  0.1289814663949166
  0.9475155406326877  0.9152284836107425  0.1302632216932045

  0.00000000E+00  0.00000000E+00  0.00000000E+00
  0.00000000E+00  0.00000000E+00  0.00000000E+00
  0.00000000E+00  0.00000000E+00  0.00000000E+00
  0.00000000E+00  0.00000000E+00  0.00000000E+00
  0.00000000E+00  0.00000000E+00  0.00000000E+00
  0.00000000E+00  0.00000000E+00  0.00000000E+00
  0.00000000E+00  0.00000000E+00  0.00000000E+00
  0.00000000E+00  0.00000000E+00  0.00000000E+00
  0.00000000E+00  0.00000000E+00  0.00000000E+00
  0.00000000E+00  0.00000000E+00  0.00000000E+00
  0.00000000E+00  0.00000000E+00  0.00000000E+00
  0.00000000E+00  0.00000000E+00  0.00000000E+00
  0.00000000E+00  0.00000000E+00  0.00000000E+00
  0.00000000E+00  0.00000000E+00  0.00000000E+00
  0.00000000E+00  0.00000000E+00  0.00000000E+00
  0.00000000E+00  0.00000000E+00  0.00000000E+00
  0.00000000E+00  0.00000000E+00  0.00000000E+00
  0.00000000E+00  0.00000000E+00  0.00000000E+00
  0.00000000E+00  0.00000000E+00  0.00000000E+00
  0.00000000E+00  0.00000000E+00  0.00000000E+00
  0.00000000E+00  0.00000000E+00  0.00000000E+00
  0.00000000E+00  0.00000000E+00  0.00000000E+00
  0.00000000E+00  0.00000000E+00  0.00000000E+00
  0.00000000E+00  0.00000000E+00  0.00000000E+00
  0.00000000E+00  0.00000000E+00  0.00000000E+00
  0.00000000E+00  0.00000000E+00  0.00000000E+00
  0.00000000E+00  0.00000000E+00  0.00000000E+00
  0.00000000E+00  0.00000000E+00  0.00000000E+00
  0.00000000E+00  0.00000000E+00  0.00000000E+00
  0.00000000E+00  0.00000000E+00  0.00000000E+00
  0.00000000E+00  0.00000000E+00  0.00000000E+00
  0.00000000E+00  0.00000000E+00  0.00000000E+00
  0.00000000E+00  0.00000000E+00  0.00000000E+00
  0.00000000E+00  0.00000000E+00  0.00000000E+00
  0.00000000E+00  0.00000000E+00  0.00000000E+00
  0.00000000E+00  0.00000000E+00  0.00000000E+00
  0.00000000E+00  0.00000000E+00  0.00000000E+00
  0.00000000E+00  0.00000000E+00  0.00000000E+00
  0.00000000E+00  0.00000000E+00  0.00000000E+00
  0.00000000E+00  0.00000000E+00  0.00000000E+00
  0.00000000E+00  0.00000000E+00  0.00000000E+00
  0.00000000E+00  0.00000000E+00  0.00000000E+00
  0.00000000E+00  0.00000000E+00  0.00000000E+00
  0.00000000E+00  0.00000000E+00  0.00000000E+00
  0.00000000E+00  0.00000000E+00  0.00000000E+00
  0.00000000E+00  0.00000000E+00  0.00000000E+00
  0.00000000E+00  0.00000000E+00  0.00000000E+00
  0.00000000E+00  0.00000000E+00  0.00000000E+00
  0.00000000E+00  0.00000000E+00  0.00000000E+00
  0.00000000E+00  0.00000000E+00  0.00000000E+00
  0.00000000E+00  0.00000000E+00  0.00000000E+00
  0.00000000E+00  0.00000000E+00  0.00000000E+00
  0.00000000E+00  0.00000000E+00  0.00000000E+00
  0.00000000E+00  0.00000000E+00  0.00000000E+00
  0.00000000E+00  0.00000000E+00  0.00000000E+00
  0.00000000E+00  0.00000000E+00  0.00000000E+00
  0.00000000E+00  0.00000000E+00  0.00000000E+00
  0.00000000E+00  0.00000000E+00  0.00000000E+00
  0.00000000E+00  0.00000000E+00  0.00000000E+00
