Sb2 Se3                                 
  0.99882000000000204     
    11.9454718211925162    0.0000000000000000    0.0000000000000000
     0.0000000000000000   11.9285311965989376    0.0000000000000000
     0.0000000000000000    0.0000000000000000   11.5287107052303703
   Sb   Se
    23    36
Direct
  0.5180183604070107  0.0833809407846465  0.1534408719921442
  0.5395466041502192  0.4162197490933330  0.1775872953530480
  0.5395398581587261  0.7505281008495910  0.1775948714933076
  0.4608663277856039  0.2539646445760825  0.8156172109280533
  0.4675484419178179  0.5833788253390012  0.8245708000158120
  0.4608723982606042  0.9127962097443652  0.8156606968456386
  0.9698747099608797  0.2511960536097637  0.6701529882970887
  0.9682283658763094  0.5832860432132662  0.6698912774469284
  0.9698631081754967  0.9153614461999986  0.6701386775992731
  0.0276322009344514  0.0832729637889072  0.3285493867955985
  0.0294202013786361  0.4164007352788932  0.3268859317912173
  0.0294151617866254  0.7501555089822715  0.3268771298977176
  0.6520943649129421  0.2532905017777247  0.4437566263359178
  0.6521131836890263  0.9135154817930122  0.4437294551304437
  0.3476140889333720  0.0833621304236576  0.5532307086322797
  0.3654385352215674  0.4274376822813638  0.5265825255456907
  0.3654629513790986  0.7393781723646445  0.5266125408150741
  0.8546298166676235  0.0832671766873133  0.9651270448485630
  0.8551625031738087  0.4172741059872794  0.9634187585431094
  0.8551760049799426  0.7492628593371540  0.9634256706605623
  0.1468481183572764  0.2493954743823716  0.0359730067111781
  0.1486948723833629  0.5832505024915272  0.0379220005868283
  0.1468616979665772  0.9171207468790039  0.0359789933517491
  0.6230434563612209  0.2503963651284070  0.0467885574876684
  0.6333735136047303  0.5833898691670796  0.0565834586093468
  0.6230320951698753  0.9163532551205993  0.0467966384762317
  0.3708953762499992  0.0834375595410581  0.9546717433748603
  0.3697955249662837  0.4179875285306289  0.9447713481090301
  0.3698135473688530  0.7487608765771784  0.9448135174557648
  0.8717851760975807  0.0832911576817230  0.5547541337196417
  0.8695176725956909  0.4154289953043757  0.5555529393035571
  0.8695131117831714  0.7511312938783445  0.5555352508036606
  0.1266502132831250  0.2493538701079357  0.4446846599893718
  0.1250459400662347  0.5832906768433829  0.4471303014357450
  0.1266586227324547  0.9171872782461375  0.4446769956990916
  0.7091454948454106  0.0834143455927637  0.2967036547299445
  0.7177542640640470  0.4143347255239930  0.3068889211303884
  0.7177719843026404  0.7524687730986765  0.3068715022264678
  0.2763729406592679  0.2471303512486103  0.6960335885603821
  0.2884537780862521  0.5834277618169527  0.6895213278820057
  0.2763873006467532  0.9195573588682386  0.6960406682684155
  0.7905865693588211  0.2489581746454404  0.8083715804487497
  0.7894913227202928  0.5833057910307728  0.8084495859989653
  0.7905929267185526  0.9175775805917032  0.8083716028491189
  0.2097879283123265  0.0832999380037975  0.1928845144567884
  0.2112700962209838  0.4170983690767299  0.1941192842730123
  0.2112742203887120  0.7494315945448825  0.1941083900175325
  0.4481250507111246  0.2521864900420553  0.3681666809795067
  0.4729758428050958  0.5834033452889325  0.4036794917597481
  0.4481411711553882  0.9146015023746715  0.3681552342214671
  0.5449491709892181  0.0834231475737945  0.6467486007787229
  0.5481499822668077  0.4057938653098687  0.6486088873491873
  0.5481713661235161  0.7610529355801624  0.6486359660701015
  0.0530881068434827  0.0833022448197582  0.8742102686684314
  0.0531608255102800  0.4170196701480811  0.8710074924662350
  0.0531819314684149  0.7495182621948279  0.8710181893156317
  0.9482942905548210  0.2512521891872012  0.1300820558718445
  0.9486845532172256  0.5832966235845002  0.1289665961463413
  0.9483156705319208  0.9153068445282320  0.1300837432041431

  0.00000000E+00  0.00000000E+00  0.00000000E+00
  0.00000000E+00  0.00000000E+00  0.00000000E+00
  0.00000000E+00  0.00000000E+00  0.00000000E+00
  0.00000000E+00  0.00000000E+00  0.00000000E+00
  0.00000000E+00  0.00000000E+00  0.00000000E+00
  0.00000000E+00  0.00000000E+00  0.00000000E+00
  0.00000000E+00  0.00000000E+00  0.00000000E+00
  0.00000000E+00  0.00000000E+00  0.00000000E+00
  0.00000000E+00  0.00000000E+00  0.00000000E+00
  0.00000000E+00  0.00000000E+00  0.00000000E+00
  0.00000000E+00  0.00000000E+00  0.00000000E+00
  0.00000000E+00  0.00000000E+00  0.00000000E+00
  0.00000000E+00  0.00000000E+00  0.00000000E+00
  0.00000000E+00  0.00000000E+00  0.00000000E+00
  0.00000000E+00  0.00000000E+00  0.00000000E+00
  0.00000000E+00  0.00000000E+00  0.00000000E+00
  0.00000000E+00  0.00000000E+00  0.00000000E+00
  0.00000000E+00  0.00000000E+00  0.00000000E+00
  0.00000000E+00  0.00000000E+00  0.00000000E+00
  0.00000000E+00  0.00000000E+00  0.00000000E+00
  0.00000000E+00  0.00000000E+00  0.00000000E+00
  0.00000000E+00  0.00000000E+00  0.00000000E+00
  0.00000000E+00  0.00000000E+00  0.00000000E+00
  0.00000000E+00  0.00000000E+00  0.00000000E+00
  0.00000000E+00  0.00000000E+00  0.00000000E+00
  0.00000000E+00  0.00000000E+00  0.00000000E+00
  0.00000000E+00  0.00000000E+00  0.00000000E+00
  0.00000000E+00  0.00000000E+00  0.00000000E+00
  0.00000000E+00  0.00000000E+00  0.00000000E+00
  0.00000000E+00  0.00000000E+00  0.00000000E+00
  0.00000000E+00  0.00000000E+00  0.00000000E+00
  0.00000000E+00  0.00000000E+00  0.00000000E+00
  0.00000000E+00  0.00000000E+00  0.00000000E+00
  0.00000000E+00  0.00000000E+00  0.00000000E+00
  0.00000000E+00  0.00000000E+00  0.00000000E+00
  0.00000000E+00  0.00000000E+00  0.00000000E+00
  0.00000000E+00  0.00000000E+00  0.00000000E+00
  0.00000000E+00  0.00000000E+00  0.00000000E+00
  0.00000000E+00  0.00000000E+00  0.00000000E+00
  0.00000000E+00  0.00000000E+00  0.00000000E+00
  0.00000000E+00  0.00000000E+00  0.00000000E+00
  0.00000000E+00  0.00000000E+00  0.00000000E+00
  0.00000000E+00  0.00000000E+00  0.00000000E+00
  0.00000000E+00  0.00000000E+00  0.00000000E+00
  0.00000000E+00  0.00000000E+00  0.00000000E+00
  0.00000000E+00  0.00000000E+00  0.00000000E+00
  0.00000000E+00  0.00000000E+00  0.00000000E+00
  0.00000000E+00  0.00000000E+00  0.00000000E+00
  0.00000000E+00  0.00000000E+00  0.00000000E+00
  0.00000000E+00  0.00000000E+00  0.00000000E+00
  0.00000000E+00  0.00000000E+00  0.00000000E+00
  0.00000000E+00  0.00000000E+00  0.00000000E+00
  0.00000000E+00  0.00000000E+00  0.00000000E+00
  0.00000000E+00  0.00000000E+00  0.00000000E+00
  0.00000000E+00  0.00000000E+00  0.00000000E+00
  0.00000000E+00  0.00000000E+00  0.00000000E+00
  0.00000000E+00  0.00000000E+00  0.00000000E+00
  0.00000000E+00  0.00000000E+00  0.00000000E+00
  0.00000000E+00  0.00000000E+00  0.00000000E+00
