Sb2 Se3                                 
  0.99882000000000204     
    11.9454718211925162    0.0000000000000000    0.0000000000000000
     0.0000000000000000   11.9285311965989376    0.0000000000000000
     0.0000000000000000    0.0000000000000000   11.5287107052303703
   Sb   Se
    23    36
Direct
  0.5260279320167214  0.0833481675914582  0.1604302743210855
  0.5425306543259591  0.4168222721503240  0.1807484811110534
  0.5425285241963766  0.7498746391018056  0.1807480446855103
  0.4649351609784367  0.2540545000500382  0.8176300119116782
  0.4647275292450659  0.5833348245841397  0.8214714834081843
  0.4649639793797639  0.9126154658480742  0.8176307380366810
  0.9713982710607140  0.2508118391511934  0.6712135262078950
  0.9689981975806942  0.5833223108169535  0.6698241957203811
  0.9713984634488128  0.9158329769617624  0.6712048761893634
  0.0271440762106223  0.0833121553555558  0.3280444846580747
  0.0262725290023214  0.4156450735634061  0.3258912814692878
  0.0262733919340027  0.7509894260841662  0.3258875019641132
  0.6497432990438990  0.2572803259231343  0.4521520700497598
  0.6497824565846130  0.9094496088954966  0.4521007865412243
  0.3471757406256748  0.0833299855135487  0.5549053195903606
  0.3643951885758962  0.4265418387279690  0.5224575732995584
  0.3644174837726246  0.7401873955150954  0.5224904692863215
  0.8540878844749337  0.0833071104008818  0.9651223238332258
  0.8545491785116204  0.4173278684917615  0.9636824253123765
  0.8545633939282865  0.7492955966323133  0.9636919172153713
  0.1481795380115878  0.2492997131155614  0.0357410237273964
  0.1492753110872700  0.5833035988698241  0.0373839108766329
  0.1481912229290245  0.9173181447588777  0.0357408931728117
  0.6273874222976382  0.2506804286689826  0.0512317228568868
  0.6347181250464027  0.5833542103060607  0.0574655361935081
  0.6273979402326474  0.9160115285064037  0.0512447679586457
  0.3753735222562940  0.0833719582748470  0.9518684073946366
  0.3708921748397347  0.4187704001460716  0.9452405161196150
  0.3709299214469844  0.7478967868736328  0.9452652199456489
  0.8723082800735849  0.0833277092659936  0.5564961446827353
  0.8699429710713448  0.4147528506559374  0.5570010442747556
  0.8699496664645117  0.7518914444061425  0.5569939926761794
  0.1258063218726083  0.2498003183682059  0.4437819769443346
  0.1195857581676184  0.5833289801218426  0.4461495887424909
  0.1258207286208724  0.9168217465100733  0.4437790993301194
  0.7091097343023988  0.0833779249613409  0.3044224287803807
  0.7176785007541052  0.4172467417045795  0.3131193441042302
  0.7176813472610106  0.7494214624247610  0.3131228541096169
  0.2795875768985437  0.2481424292365920  0.6973945276876675
  0.2868228418983274  0.5833863439146959  0.6865679147794834
  0.2796103044490750  0.9184804543188287  0.6974033660210318
  0.7911218878481123  0.2494164641129958  0.8081544170083059
  0.7897476370825335  0.5833377886317977  0.8084810311766453
  0.7911322898668918  0.9171969010052057  0.8081522419801741
  0.2091025290289207  0.0833329590515431  0.1934807427281774
  0.2093634334438253  0.4164824000285713  0.1939056294548245
  0.2093682155232512  0.7501359756998901  0.1938927211942394
  0.4486667693807752  0.2518496449951100  0.3678543617348475
  0.4452641645753825  0.5833679965706279  0.3790631959584783
  0.4486925487514915  0.9148567018452639  0.3678419249798121
  0.5459457131898586  0.0833741927464233  0.6411436574335078
  0.5489685800950962  0.4135177092327986  0.6387740586886032
  0.5489897053525942  0.7532187960461522  0.6388149264245871
  0.0528715590060997  0.0833428474953234  0.8738116556857601
  0.0532031877359364  0.4171089115028289  0.8715735895235123
  0.0532193513439310  0.7495002855887339  0.8715764151117311
  0.9487748155108057  0.2505625819039379  0.1286890708459992
  0.9487869977310406  0.5833359318194211  0.1285784599947074
  0.9487909848923817  0.9160600216217263  0.1286816766400313

  0.00000000E+00  0.00000000E+00  0.00000000E+00
  0.00000000E+00  0.00000000E+00  0.00000000E+00
  0.00000000E+00  0.00000000E+00  0.00000000E+00
  0.00000000E+00  0.00000000E+00  0.00000000E+00
  0.00000000E+00  0.00000000E+00  0.00000000E+00
  0.00000000E+00  0.00000000E+00  0.00000000E+00
  0.00000000E+00  0.00000000E+00  0.00000000E+00
  0.00000000E+00  0.00000000E+00  0.00000000E+00
  0.00000000E+00  0.00000000E+00  0.00000000E+00
  0.00000000E+00  0.00000000E+00  0.00000000E+00
  0.00000000E+00  0.00000000E+00  0.00000000E+00
  0.00000000E+00  0.00000000E+00  0.00000000E+00
  0.00000000E+00  0.00000000E+00  0.00000000E+00
  0.00000000E+00  0.00000000E+00  0.00000000E+00
  0.00000000E+00  0.00000000E+00  0.00000000E+00
  0.00000000E+00  0.00000000E+00  0.00000000E+00
  0.00000000E+00  0.00000000E+00  0.00000000E+00
  0.00000000E+00  0.00000000E+00  0.00000000E+00
  0.00000000E+00  0.00000000E+00  0.00000000E+00
  0.00000000E+00  0.00000000E+00  0.00000000E+00
  0.00000000E+00  0.00000000E+00  0.00000000E+00
  0.00000000E+00  0.00000000E+00  0.00000000E+00
  0.00000000E+00  0.00000000E+00  0.00000000E+00
  0.00000000E+00  0.00000000E+00  0.00000000E+00
  0.00000000E+00  0.00000000E+00  0.00000000E+00
  0.00000000E+00  0.00000000E+00  0.00000000E+00
  0.00000000E+00  0.00000000E+00  0.00000000E+00
  0.00000000E+00  0.00000000E+00  0.00000000E+00
  0.00000000E+00  0.00000000E+00  0.00000000E+00
  0.00000000E+00  0.00000000E+00  0.00000000E+00
  0.00000000E+00  0.00000000E+00  0.00000000E+00
  0.00000000E+00  0.00000000E+00  0.00000000E+00
  0.00000000E+00  0.00000000E+00  0.00000000E+00
  0.00000000E+00  0.00000000E+00  0.00000000E+00
  0.00000000E+00  0.00000000E+00  0.00000000E+00
  0.00000000E+00  0.00000000E+00  0.00000000E+00
  0.00000000E+00  0.00000000E+00  0.00000000E+00
  0.00000000E+00  0.00000000E+00  0.00000000E+00
  0.00000000E+00  0.00000000E+00  0.00000000E+00
  0.00000000E+00  0.00000000E+00  0.00000000E+00
  0.00000000E+00  0.00000000E+00  0.00000000E+00
  0.00000000E+00  0.00000000E+00  0.00000000E+00
  0.00000000E+00  0.00000000E+00  0.00000000E+00
  0.00000000E+00  0.00000000E+00  0.00000000E+00
  0.00000000E+00  0.00000000E+00  0.00000000E+00
  0.00000000E+00  0.00000000E+00  0.00000000E+00
  0.00000000E+00  0.00000000E+00  0.00000000E+00
  0.00000000E+00  0.00000000E+00  0.00000000E+00
  0.00000000E+00  0.00000000E+00  0.00000000E+00
  0.00000000E+00  0.00000000E+00  0.00000000E+00
  0.00000000E+00  0.00000000E+00  0.00000000E+00
  0.00000000E+00  0.00000000E+00  0.00000000E+00
  0.00000000E+00  0.00000000E+00  0.00000000E+00
  0.00000000E+00  0.00000000E+00  0.00000000E+00
  0.00000000E+00  0.00000000E+00  0.00000000E+00
  0.00000000E+00  0.00000000E+00  0.00000000E+00
  0.00000000E+00  0.00000000E+00  0.00000000E+00
  0.00000000E+00  0.00000000E+00  0.00000000E+00
  0.00000000E+00  0.00000000E+00  0.00000000E+00
