Sb2 Se3                                 
  0.99882000000000204     
    11.9454718211925162    0.0000000000000000    0.0000000000000000
     0.0000000000000000   11.9285311965989376    0.0000000000000000
     0.0000000000000000    0.0000000000000000   11.5287107052303703
   Sb   Se
    23    36
Direct
  0.5367155654350765  0.0833472382489216  0.1699966686845160
  0.5450159525616671  0.4173714452201807  0.1833594090603383
  0.5450112234910615  0.7493156327722091  0.1833613812202125
  0.4631657114382227  0.2521404266133322  0.8193936163232813
  0.4615018333312838  0.5833326334649792  0.8212145400893324
  0.4631623137992626  0.9145419097774313  0.8194140392466190
  0.9716957329346956  0.2503764505186019  0.6726341170511421
  0.9680200211045442  0.5833300098425533  0.6714242328704280
  0.9716984065124709  0.9162932834393362  0.6726310830244767
  0.0273416050997343  0.0833223430737753  0.3276394741421541
  0.0253581973890474  0.4154163870862098  0.3253887780093580
  0.0253514334367935  0.7512381566916857  0.3253845352358771
  0.6495383548915141  0.2618054390767671  0.4593267339290734
  0.6495593891539384  0.9048472548712678  0.4593207025110734
  0.3456134798088317  0.0833341501305964  0.5551779656007735
  0.3653251409001532  0.4270807461023566  0.5171329195296496
  0.3653350836335918  0.7396384087970825  0.5171405324675742
  0.8524733757302232  0.0833136213376524  0.9661175151136469
  0.8530603516290315  0.4170974747637274  0.9648418920068349
  0.8530727363387677  0.7495365440366877  0.9648481888451584
  0.1486243371757284  0.2492644088350134  0.0349314150119006
  0.1499222257766866  0.5833134833352681  0.0367436761998391
  0.1486338543542477  0.9173693026344840  0.0349346963012076
  0.6286808235458671  0.2517558317705472  0.0518802208529374
  0.6350424410121361  0.5833499709002461  0.0572574317925563
  0.6287008483219856  0.9149335959377936  0.0519040839875843
  0.3749043397298055  0.0833549547758707  0.9507801940050058
  0.3692386947138471  0.4199623212937945  0.9457459889039570
  0.3692591804260450  0.7467012593760471  0.9457674748782366
  0.8727560457187024  0.0833389295428357  0.5574170780177036
  0.8707026926537396  0.4141943217966640  0.5575077274968310
  0.8707149768869948  0.7524754535722850  0.5575027240480228
  0.1252110796812657  0.2497609868229368  0.4436330037592991
  0.1172983138514681  0.5833394398570700  0.4459936237958431
  0.1252218624042267  0.9168809215564112  0.4436277762694319
  0.7138151209651620  0.0833641402581249  0.3092156718252841
  0.7190141777176018  0.4191097497416819  0.3162350150541383
  0.7189977413790840  0.7474927354320932  0.3162610528234114
  0.2792752903776000  0.2494395515701495  0.6958475788683371
  0.2870297183762267  0.5833826414865073  0.6825118982383560
  0.2792865991401153  0.9171987685354209  0.6958527295376178
  0.7906379199639222  0.2496069351741189  0.8084012363970871
  0.7885224663966498  0.5833461909705431  0.8088623247931377
  0.7906474063708913  0.9170224784402564  0.8083988952258244
  0.2090878916474155  0.0833421657545656  0.1931895551497682
  0.2087057930339624  0.4158162565410438  0.1935045378043070
  0.2087061969093385  0.7508205716837421  0.1934960655207566
  0.4517790232788577  0.2507778033430598  0.3672251382470925
  0.4362547401804240  0.5833568873210859  0.3667790007514072
  0.4518079621784211  0.9159043525294855  0.3672107608206157
  0.5447285177267842  0.0833644468851359  0.6392626147554675
  0.5500876103445596  0.4162496979308419  0.6305860579571981
  0.5501075791429494  0.7504397144522922  0.6305864260738226
  0.0516322746895130  0.0833490129679312  0.8740940978076662
  0.0522946543643394  0.4173953492288667  0.8721335529937143
  0.0523103371185483  0.7492293859996819  0.8721374275553589
  0.9487995914571664  0.2503643369551992  0.1277182228981583
  0.9489051876341423  0.5833434351805383  0.1286111741976383
  0.9488114899711928  0.9162753204117031  0.1277153661762609

  0.00000000E+00  0.00000000E+00  0.00000000E+00
  0.00000000E+00  0.00000000E+00  0.00000000E+00
  0.00000000E+00  0.00000000E+00  0.00000000E+00
  0.00000000E+00  0.00000000E+00  0.00000000E+00
  0.00000000E+00  0.00000000E+00  0.00000000E+00
  0.00000000E+00  0.00000000E+00  0.00000000E+00
  0.00000000E+00  0.00000000E+00  0.00000000E+00
  0.00000000E+00  0.00000000E+00  0.00000000E+00
  0.00000000E+00  0.00000000E+00  0.00000000E+00
  0.00000000E+00  0.00000000E+00  0.00000000E+00
  0.00000000E+00  0.00000000E+00  0.00000000E+00
  0.00000000E+00  0.00000000E+00  0.00000000E+00
  0.00000000E+00  0.00000000E+00  0.00000000E+00
  0.00000000E+00  0.00000000E+00  0.00000000E+00
  0.00000000E+00  0.00000000E+00  0.00000000E+00
  0.00000000E+00  0.00000000E+00  0.00000000E+00
  0.00000000E+00  0.00000000E+00  0.00000000E+00
  0.00000000E+00  0.00000000E+00  0.00000000E+00
  0.00000000E+00  0.00000000E+00  0.00000000E+00
  0.00000000E+00  0.00000000E+00  0.00000000E+00
  0.00000000E+00  0.00000000E+00  0.00000000E+00
  0.00000000E+00  0.00000000E+00  0.00000000E+00
  0.00000000E+00  0.00000000E+00  0.00000000E+00
  0.00000000E+00  0.00000000E+00  0.00000000E+00
  0.00000000E+00  0.00000000E+00  0.00000000E+00
  0.00000000E+00  0.00000000E+00  0.00000000E+00
  0.00000000E+00  0.00000000E+00  0.00000000E+00
  0.00000000E+00  0.00000000E+00  0.00000000E+00
  0.00000000E+00  0.00000000E+00  0.00000000E+00
  0.00000000E+00  0.00000000E+00  0.00000000E+00
  0.00000000E+00  0.00000000E+00  0.00000000E+00
  0.00000000E+00  0.00000000E+00  0.00000000E+00
  0.00000000E+00  0.00000000E+00  0.00000000E+00
  0.00000000E+00  0.00000000E+00  0.00000000E+00
  0.00000000E+00  0.00000000E+00  0.00000000E+00
  0.00000000E+00  0.00000000E+00  0.00000000E+00
  0.00000000E+00  0.00000000E+00  0.00000000E+00
  0.00000000E+00  0.00000000E+00  0.00000000E+00
  0.00000000E+00  0.00000000E+00  0.00000000E+00
  0.00000000E+00  0.00000000E+00  0.00000000E+00
  0.00000000E+00  0.00000000E+00  0.00000000E+00
  0.00000000E+00  0.00000000E+00  0.00000000E+00
  0.00000000E+00  0.00000000E+00  0.00000000E+00
  0.00000000E+00  0.00000000E+00  0.00000000E+00
  0.00000000E+00  0.00000000E+00  0.00000000E+00
  0.00000000E+00  0.00000000E+00  0.00000000E+00
  0.00000000E+00  0.00000000E+00  0.00000000E+00
  0.00000000E+00  0.00000000E+00  0.00000000E+00
  0.00000000E+00  0.00000000E+00  0.00000000E+00
  0.00000000E+00  0.00000000E+00  0.00000000E+00
  0.00000000E+00  0.00000000E+00  0.00000000E+00
  0.00000000E+00  0.00000000E+00  0.00000000E+00
  0.00000000E+00  0.00000000E+00  0.00000000E+00
  0.00000000E+00  0.00000000E+00  0.00000000E+00
  0.00000000E+00  0.00000000E+00  0.00000000E+00
  0.00000000E+00  0.00000000E+00  0.00000000E+00
  0.00000000E+00  0.00000000E+00  0.00000000E+00
  0.00000000E+00  0.00000000E+00  0.00000000E+00
  0.00000000E+00  0.00000000E+00  0.00000000E+00
