Sb2 Se3                                 
  0.99882000000000204     
    11.9454718211925162    0.0000000000000000    0.0000000000000000
     0.0000000000000000   11.9285311965989376    0.0000000000000000
     0.0000000000000000    0.0000000000000000   11.5287107052303703
   Sb   Se
    24    35
Direct
  0.5237360399553840  0.0832838163614147  0.1810090236913545
  0.5766774403594879  0.4167071235160129  0.1918323728517675
  0.5237068294460848  0.7500616707105503  0.1809761891110742
  0.4671600035508136  0.2542044477449550  0.8273680014853970
  0.4671469381997657  0.5791011998081702  0.8273698315415290
  0.4804415645356525  0.9166633002546275  0.8490635863219936
  0.9660702882796748  0.2520389670898795  0.6663406000157300
  0.9660653949230605  0.5813283724596203  0.6663246283096157
  0.9677586923200414  0.9166835740360105  0.6715672565025765
  0.0321311151601530  0.0826891934657176  0.3257388938759589
  0.0329416409333038  0.4166828113810921  0.3248916433967645
  0.0321209804013893  0.7506735951340208  0.3257283281304139
  0.6340781602438140  0.2386347050034758  0.4757247381277734
  0.6340388916043204  0.5946252806814870  0.4756151939855094
  0.6542493346171827  0.9166359633130252  0.4526484273479901
  0.3485982146265668  0.0824976179196625  0.5358274133274579
  0.3480064501916957  0.4166081886737703  0.5340295929395131
  0.3485863780883444  0.7507174651887780  0.5358176535761898
  0.8550696209973651  0.0832375402399470  0.9615345324025605
  0.8557637758079156  0.4166870454793124  0.9550049667689470
  0.8550809309211016  0.7501168432936800  0.9615338447606419
  0.1450666730158759  0.2505614274140458  0.0368257072360673
  0.1450845126164122  0.5828125561613603  0.0368280680104916
  0.1448367295576361  0.9166947080766420  0.0344094781328043
  0.6287661037589957  0.2536296487959848  0.0612854127472123
  0.6287587115894413  0.5797667428218207  0.0612410366612219
  0.6224644412165722  0.9166647943443708  0.0598068585813836
  0.3738334676350311  0.0833757638899725  0.9470855506034808
  0.3701393730296648  0.4166439113334279  0.9464159112692442
  0.3738263824723178  0.7499517641335933  0.9470779535803935
  0.8700581024387027  0.0829865086632151  0.5517254509706565
  0.8667179019393445  0.4166729161234015  0.5481795786659240
  0.8700647125784599  0.7503910895554204  0.5517089723337957
  0.1273313420167821  0.2495296518559725  0.4457987631035286
  0.1273328742459546  0.5838513522543813  0.4457864986472078
  0.1281493028192127  0.9166750862792077  0.4468507886195489
  0.7100680489533265  0.0853741705907963  0.3062963582657226
  0.7100550335524949  0.7479350489927722  0.3062643470588223
  0.2885995131422789  0.2470249137456574  0.6918002338471387
  0.2885882351033435  0.5862386202545395  0.6918055430826263
  0.3035467090317237  0.9166214517863900  0.6929663502494795
  0.7872623210671614  0.2502601887335786  0.8047787214182123
  0.7872702402930301  0.5831318566697669  0.8047684815330869
  0.7876524472777044  0.9166576958591104  0.8074350102506678
  0.2117838689479878  0.0826514534084638  0.1911229983075633
  0.2135377844302532  0.4166599544795229  0.1918401919860308
  0.2117865748101316  0.7507497992023660  0.1911148918380954
  0.4433849658869621  0.2526040404957423  0.3684084097221148
  0.4433122563063827  0.5807597497741452  0.3683636620893795
  0.4513458500120997  0.9166342775452363  0.3653887931092182
  0.5559478076182967  0.0867393855037480  0.6199856267183619
  0.5456977352062361  0.4166263079420824  0.6315767622894738
  0.5559565053791202  0.7464753909183865  0.6199426128722284
  0.0519508001422779  0.0839474766370033  0.8689221225340048
  0.0546699802559521  0.4166622888512883  0.8676533626935996
  0.0519702761502211  0.7494318290592106  0.8689288191500697
  0.9481152183169261  0.2500343411202761  0.1294916055977822
  0.9481406492937244  0.5833566759331679  0.1294978931041449
  0.9469865700340497  0.9166697723721240  0.1277345851229214

  0.00000000E+00  0.00000000E+00  0.00000000E+00
  0.00000000E+00  0.00000000E+00  0.00000000E+00
  0.00000000E+00  0.00000000E+00  0.00000000E+00
  0.00000000E+00  0.00000000E+00  0.00000000E+00
  0.00000000E+00  0.00000000E+00  0.00000000E+00
  0.00000000E+00  0.00000000E+00  0.00000000E+00
  0.00000000E+00  0.00000000E+00  0.00000000E+00
  0.00000000E+00  0.00000000E+00  0.00000000E+00
  0.00000000E+00  0.00000000E+00  0.00000000E+00
  0.00000000E+00  0.00000000E+00  0.00000000E+00
  0.00000000E+00  0.00000000E+00  0.00000000E+00
  0.00000000E+00  0.00000000E+00  0.00000000E+00
  0.00000000E+00  0.00000000E+00  0.00000000E+00
  0.00000000E+00  0.00000000E+00  0.00000000E+00
  0.00000000E+00  0.00000000E+00  0.00000000E+00
  0.00000000E+00  0.00000000E+00  0.00000000E+00
  0.00000000E+00  0.00000000E+00  0.00000000E+00
  0.00000000E+00  0.00000000E+00  0.00000000E+00
  0.00000000E+00  0.00000000E+00  0.00000000E+00
  0.00000000E+00  0.00000000E+00  0.00000000E+00
  0.00000000E+00  0.00000000E+00  0.00000000E+00
  0.00000000E+00  0.00000000E+00  0.00000000E+00
  0.00000000E+00  0.00000000E+00  0.00000000E+00
  0.00000000E+00  0.00000000E+00  0.00000000E+00
  0.00000000E+00  0.00000000E+00  0.00000000E+00
  0.00000000E+00  0.00000000E+00  0.00000000E+00
  0.00000000E+00  0.00000000E+00  0.00000000E+00
  0.00000000E+00  0.00000000E+00  0.00000000E+00
  0.00000000E+00  0.00000000E+00  0.00000000E+00
  0.00000000E+00  0.00000000E+00  0.00000000E+00
  0.00000000E+00  0.00000000E+00  0.00000000E+00
  0.00000000E+00  0.00000000E+00  0.00000000E+00
  0.00000000E+00  0.00000000E+00  0.00000000E+00
  0.00000000E+00  0.00000000E+00  0.00000000E+00
  0.00000000E+00  0.00000000E+00  0.00000000E+00
  0.00000000E+00  0.00000000E+00  0.00000000E+00
  0.00000000E+00  0.00000000E+00  0.00000000E+00
  0.00000000E+00  0.00000000E+00  0.00000000E+00
  0.00000000E+00  0.00000000E+00  0.00000000E+00
  0.00000000E+00  0.00000000E+00  0.00000000E+00
  0.00000000E+00  0.00000000E+00  0.00000000E+00
  0.00000000E+00  0.00000000E+00  0.00000000E+00
  0.00000000E+00  0.00000000E+00  0.00000000E+00
  0.00000000E+00  0.00000000E+00  0.00000000E+00
  0.00000000E+00  0.00000000E+00  0.00000000E+00
  0.00000000E+00  0.00000000E+00  0.00000000E+00
  0.00000000E+00  0.00000000E+00  0.00000000E+00
  0.00000000E+00  0.00000000E+00  0.00000000E+00
  0.00000000E+00  0.00000000E+00  0.00000000E+00
  0.00000000E+00  0.00000000E+00  0.00000000E+00
  0.00000000E+00  0.00000000E+00  0.00000000E+00
  0.00000000E+00  0.00000000E+00  0.00000000E+00
  0.00000000E+00  0.00000000E+00  0.00000000E+00
  0.00000000E+00  0.00000000E+00  0.00000000E+00
  0.00000000E+00  0.00000000E+00  0.00000000E+00
  0.00000000E+00  0.00000000E+00  0.00000000E+00
  0.00000000E+00  0.00000000E+00  0.00000000E+00
  0.00000000E+00  0.00000000E+00  0.00000000E+00
  0.00000000E+00  0.00000000E+00  0.00000000E+00
