Sb2 Se3                                 
  0.99882000000000204     
    11.9454718211925162    0.0000000000000000    0.0000000000000000
     0.0000000000000000   11.9285311965989376    0.0000000000000000
     0.0000000000000000    0.0000000000000000   11.5287107052303703
   Sb   Se
    24    35
Direct
  0.5279951178795541  0.0859880646012736  0.1726758654178637
  0.5442483148664821  0.4166850042164040  0.1867905582379477
  0.5279680905257893  0.7473482967461088  0.1726394084214108
  0.4704860113495863  0.2535719321675602  0.8310069448550785
  0.4704706464191379  0.5797246674059428  0.8310117454847413
  0.4777375713437255  0.9166639358734463  0.8435302371092720
  0.9668786381146133  0.2518556769092815  0.6674542429182651
  0.9668750404492561  0.5815260506463454  0.6674376860152785
  0.9676329187587900  0.9166907079399474  0.6730089814356633
  0.0324379422661949  0.0826907281482651  0.3260258281715509
  0.0320426969943930  0.4166938491029971  0.3263455941575854
  0.0324249980871905  0.7506949384531063  0.3260119154931392
  0.6345738660467147  0.2402571679343476  0.4725214400955071
  0.6345342639958701  0.5929836330856643  0.4724172116118946
  0.6529118284885151  0.9166215155379983  0.4531391411600812
  0.3525152974121143  0.0819519777622306  0.5335754424183939
  0.3480135187794146  0.4166004381933112  0.5423720707398597
  0.3524984254176986  0.7512374991177468  0.5335845086798162
  0.8542204500479502  0.0840050678858652  0.9617096301883755
  0.8540057031119089  0.4167029662226492  0.9592829940036096
  0.8542319656904498  0.7493889808946337  0.9617081083265918
  0.1449715273964844  0.2506960861991233  0.0362214195870773
  0.1449839100521995  0.5826947531981557  0.0362252843024445
  0.1446983840750640  0.9167037168719426  0.0350403228078248
  0.6295945125291332  0.2513943553401797  0.0588701636474874
  0.6295715852983043  0.5819650720000182  0.0588182325575182
  0.6259762267414799  0.9166580378205973  0.0562275076589784
  0.3738148253079447  0.0823661331196514  0.9471996575505027
  0.3720701700288359  0.4166335416236566  0.9477717894858414
  0.3738043457872392  0.7509604198290210  0.9471840876111390
  0.8717052752861666  0.0834321761175652  0.5518067930715906
  0.8678527260958989  0.4166809241044127  0.5489215750522168
  0.8717127363547205  0.7499588453802615  0.5517897997013306
  0.1274700233513874  0.2500763473467408  0.4457546761706886
  0.1274725832447725  0.5833263295581667  0.4457376156864231
  0.1286035346699846  0.9166837322705279  0.4466566740675885
  0.7102521662307432  0.0849372689781928  0.3063193335734781
  0.7102401207770452  0.7483464224749995  0.3062839968126209
  0.2900480380325328  0.2467793525834190  0.6943729593050014
  0.2900298513812291  0.5864620100672272  0.6943766615637873
  0.3022091407102607  0.9166200076624992  0.6920405538007429
  0.7878066339875842  0.2503951616071966  0.8057231737171466
  0.7878173530799054  0.5830168463611106  0.8057135730203161
  0.7874058006180981  0.9166664258850056  0.8066946296426553
  0.2119747214640562  0.0831985264945307  0.1912146914912257
  0.2118679882697687  0.4166679443931678  0.1917961482270620
  0.2119747397363809  0.7502129541554655  0.1912031459096840
  0.4432714482875830  0.2511728626988811  0.3699099614527905
  0.4431991680217149  0.5821678418568689  0.3698790298581587
  0.4492064485113529  0.9166151310759678  0.3710947011370342
  0.5578695657170900  0.0878334906341798  0.6212689322249618
  0.5484134186056517  0.4166145880257964  0.6328147362091208
  0.5578713405127299  0.7453597871092414  0.6212419400733883
  0.0519744032187266  0.0835418987900209  0.8690059681487050
  0.0529375521558989  0.4166721630398051  0.8698283493837469
  0.0519943375823322  0.7498616419226829  0.8690137759575985
  0.9474333920360142  0.2495052645087796  0.1281809852704536
  0.9474547712817746  0.5838937551106930  0.1281889313709001
  0.9472306348217705  0.9166784182724332  0.1284187984232320

  0.00000000E+00  0.00000000E+00  0.00000000E+00
  0.00000000E+00  0.00000000E+00  0.00000000E+00
  0.00000000E+00  0.00000000E+00  0.00000000E+00
  0.00000000E+00  0.00000000E+00  0.00000000E+00
  0.00000000E+00  0.00000000E+00  0.00000000E+00
  0.00000000E+00  0.00000000E+00  0.00000000E+00
  0.00000000E+00  0.00000000E+00  0.00000000E+00
  0.00000000E+00  0.00000000E+00  0.00000000E+00
  0.00000000E+00  0.00000000E+00  0.00000000E+00
  0.00000000E+00  0.00000000E+00  0.00000000E+00
  0.00000000E+00  0.00000000E+00  0.00000000E+00
  0.00000000E+00  0.00000000E+00  0.00000000E+00
  0.00000000E+00  0.00000000E+00  0.00000000E+00
  0.00000000E+00  0.00000000E+00  0.00000000E+00
  0.00000000E+00  0.00000000E+00  0.00000000E+00
  0.00000000E+00  0.00000000E+00  0.00000000E+00
  0.00000000E+00  0.00000000E+00  0.00000000E+00
  0.00000000E+00  0.00000000E+00  0.00000000E+00
  0.00000000E+00  0.00000000E+00  0.00000000E+00
  0.00000000E+00  0.00000000E+00  0.00000000E+00
  0.00000000E+00  0.00000000E+00  0.00000000E+00
  0.00000000E+00  0.00000000E+00  0.00000000E+00
  0.00000000E+00  0.00000000E+00  0.00000000E+00
  0.00000000E+00  0.00000000E+00  0.00000000E+00
  0.00000000E+00  0.00000000E+00  0.00000000E+00
  0.00000000E+00  0.00000000E+00  0.00000000E+00
  0.00000000E+00  0.00000000E+00  0.00000000E+00
  0.00000000E+00  0.00000000E+00  0.00000000E+00
  0.00000000E+00  0.00000000E+00  0.00000000E+00
  0.00000000E+00  0.00000000E+00  0.00000000E+00
  0.00000000E+00  0.00000000E+00  0.00000000E+00
  0.00000000E+00  0.00000000E+00  0.00000000E+00
  0.00000000E+00  0.00000000E+00  0.00000000E+00
  0.00000000E+00  0.00000000E+00  0.00000000E+00
  0.00000000E+00  0.00000000E+00  0.00000000E+00
  0.00000000E+00  0.00000000E+00  0.00000000E+00
  0.00000000E+00  0.00000000E+00  0.00000000E+00
  0.00000000E+00  0.00000000E+00  0.00000000E+00
  0.00000000E+00  0.00000000E+00  0.00000000E+00
  0.00000000E+00  0.00000000E+00  0.00000000E+00
  0.00000000E+00  0.00000000E+00  0.00000000E+00
  0.00000000E+00  0.00000000E+00  0.00000000E+00
  0.00000000E+00  0.00000000E+00  0.00000000E+00
  0.00000000E+00  0.00000000E+00  0.00000000E+00
  0.00000000E+00  0.00000000E+00  0.00000000E+00
  0.00000000E+00  0.00000000E+00  0.00000000E+00
  0.00000000E+00  0.00000000E+00  0.00000000E+00
  0.00000000E+00  0.00000000E+00  0.00000000E+00
  0.00000000E+00  0.00000000E+00  0.00000000E+00
  0.00000000E+00  0.00000000E+00  0.00000000E+00
  0.00000000E+00  0.00000000E+00  0.00000000E+00
  0.00000000E+00  0.00000000E+00  0.00000000E+00
  0.00000000E+00  0.00000000E+00  0.00000000E+00
  0.00000000E+00  0.00000000E+00  0.00000000E+00
  0.00000000E+00  0.00000000E+00  0.00000000E+00
  0.00000000E+00  0.00000000E+00  0.00000000E+00
  0.00000000E+00  0.00000000E+00  0.00000000E+00
  0.00000000E+00  0.00000000E+00  0.00000000E+00
  0.00000000E+00  0.00000000E+00  0.00000000E+00
