Sb2 Se3                                 
  0.99882000000000204     
    11.9454718211925162    0.0000000000000000    0.0000000000000000
     0.0000000000000000   11.9285311965989376    0.0000000000000000
     0.0000000000000000    0.0000000000000000   11.5287107052303703
   Sb   Se
    24    35
Direct
  0.5317260663062349  0.0847862492489709  0.1684758551113201
  0.5529654597043820  0.4167929395552284  0.2167075690919375
  0.5318226169895011  0.7486603191249815  0.1683961862400891
  0.4727892760669495  0.2544439595445087  0.8370416071456624
  0.4727765125145599  0.5788502535999104  0.8370153433859143
  0.4814243420056032  0.9166929431595837  0.8311276148942802
  0.9665439302793583  0.2512518688815652  0.6681970646944514
  0.9665376652215543  0.5821085673632130  0.6681401556899956
  0.9693574449991166  0.9166287262974718  0.6728063353048482
  0.0310013378717302  0.0826737122102455  0.3263645864717669
  0.0290633033984289  0.4166581459855841  0.3261657402488118
  0.0309709263032886  0.7506743185354116  0.3263884578052812
  0.6332241007529485  0.2550761868265968  0.4553639206184532
  0.6332268901082290  0.5776395942835888  0.4550547685229372
  0.6498887364256417  0.9164100694790310  0.4601403783518358
  0.3574858603424290  0.0810201384298551  0.5371473212598971
  0.3450700646398422  0.4166844796343316  0.5459753532344940
  0.3575329645291043  0.7522211362751722  0.5371452461882656
  0.8525252755429757  0.0846267798528922  0.9625843457492104
  0.8523917261948002  0.4166744658892796  0.9606953750025877
  0.8525422715223875  0.7487169211159739  0.9624750785065803
  0.1446344796975659  0.2509046059566740  0.0356905348961438
  0.1446324836496885  0.5823652287127064  0.0356707261114454
  0.1443678033673534  0.9167070832433414  0.0354034517570619
  0.6288261846692087  0.2529351944433798  0.0626993543596417
  0.6287018183963795  0.5804415553158511  0.0625518160317774
  0.6295749571285312  0.9167739716417614  0.0507251189041611
  0.3764357275667702  0.0822331382556026  0.9437256767566422
  0.3708199153926799  0.4165895138188758  0.9510578372357148
  0.3764330947064534  0.7513064765397588  0.9435117348691906
  0.8721539467445556  0.0829800872045980  0.5527672864083482
  0.8663759636884861  0.4167178171685424  0.5505726832219167
  0.8720808671130085  0.7503545460467682  0.5527658926645095
  0.1258424664307498  0.2508346552593244  0.4448947411310745
  0.1257534177962267  0.5825223419834079  0.4449366519409848
  0.1288539333206997  0.9166767160968171  0.4449431178440232
  0.7095044386976025  0.0841456564919179  0.3065696773853011
  0.7095307774423006  0.7489726005657933  0.3065530218144890
  0.2924258610354898  0.2480736958057732  0.6966240991903301
  0.2923716797192261  0.5852330998460966  0.6966500864308837
  0.2987292750449079  0.9167707681009823  0.6922174001457913
  0.7873632784341308  0.2504216833834815  0.8063812675288332
  0.7873581349601538  0.5829650444680388  0.8062965498310374
  0.7888621827616477  0.9166519610086561  0.8059401669316346
  0.2108919708087072  0.0834212720443876  0.1909822175195427
  0.2093169887290490  0.4165806353130293  0.1921839227365427
  0.2108449122322631  0.7500208511285639  0.1909596490500479
  0.4380273467154862  0.2510931495918547  0.3632619913037868
  0.4379059559401278  0.5823827474857287  0.3632992368284676
  0.4481470642745276  0.9166225103390697  0.3744817391464915
  0.5593177496361894  0.0893374466595299  0.6236883202379629
  0.5494524856106521  0.4167050189900154  0.6240483626685368
  0.5590969482615245  0.7442154819754583  0.6240688938787653
  0.0512258883007072  0.0838940557295972  0.8694329076658289
  0.0515087997463458  0.4166586778057713  0.8708181191913165
  0.0512596759110104  0.7495002058465424  0.8693791524197773
  0.9464131846363522  0.2491294857811489  0.1277004093481339
  0.9464676254806009  0.5841944930175055  0.1277232614966520
  0.9471126515387324  0.9167080849736113  0.1284747500729597

  0.00000000E+00  0.00000000E+00  0.00000000E+00
  0.00000000E+00  0.00000000E+00  0.00000000E+00
  0.00000000E+00  0.00000000E+00  0.00000000E+00
  0.00000000E+00  0.00000000E+00  0.00000000E+00
  0.00000000E+00  0.00000000E+00  0.00000000E+00
  0.00000000E+00  0.00000000E+00  0.00000000E+00
  0.00000000E+00  0.00000000E+00  0.00000000E+00
  0.00000000E+00  0.00000000E+00  0.00000000E+00
  0.00000000E+00  0.00000000E+00  0.00000000E+00
  0.00000000E+00  0.00000000E+00  0.00000000E+00
  0.00000000E+00  0.00000000E+00  0.00000000E+00
  0.00000000E+00  0.00000000E+00  0.00000000E+00
  0.00000000E+00  0.00000000E+00  0.00000000E+00
  0.00000000E+00  0.00000000E+00  0.00000000E+00
  0.00000000E+00  0.00000000E+00  0.00000000E+00
  0.00000000E+00  0.00000000E+00  0.00000000E+00
  0.00000000E+00  0.00000000E+00  0.00000000E+00
  0.00000000E+00  0.00000000E+00  0.00000000E+00
  0.00000000E+00  0.00000000E+00  0.00000000E+00
  0.00000000E+00  0.00000000E+00  0.00000000E+00
  0.00000000E+00  0.00000000E+00  0.00000000E+00
  0.00000000E+00  0.00000000E+00  0.00000000E+00
  0.00000000E+00  0.00000000E+00  0.00000000E+00
  0.00000000E+00  0.00000000E+00  0.00000000E+00
  0.00000000E+00  0.00000000E+00  0.00000000E+00
  0.00000000E+00  0.00000000E+00  0.00000000E+00
  0.00000000E+00  0.00000000E+00  0.00000000E+00
  0.00000000E+00  0.00000000E+00  0.00000000E+00
  0.00000000E+00  0.00000000E+00  0.00000000E+00
  0.00000000E+00  0.00000000E+00  0.00000000E+00
  0.00000000E+00  0.00000000E+00  0.00000000E+00
  0.00000000E+00  0.00000000E+00  0.00000000E+00
  0.00000000E+00  0.00000000E+00  0.00000000E+00
  0.00000000E+00  0.00000000E+00  0.00000000E+00
  0.00000000E+00  0.00000000E+00  0.00000000E+00
  0.00000000E+00  0.00000000E+00  0.00000000E+00
  0.00000000E+00  0.00000000E+00  0.00000000E+00
  0.00000000E+00  0.00000000E+00  0.00000000E+00
  0.00000000E+00  0.00000000E+00  0.00000000E+00
  0.00000000E+00  0.00000000E+00  0.00000000E+00
  0.00000000E+00  0.00000000E+00  0.00000000E+00
  0.00000000E+00  0.00000000E+00  0.00000000E+00
  0.00000000E+00  0.00000000E+00  0.00000000E+00
  0.00000000E+00  0.00000000E+00  0.00000000E+00
  0.00000000E+00  0.00000000E+00  0.00000000E+00
  0.00000000E+00  0.00000000E+00  0.00000000E+00
  0.00000000E+00  0.00000000E+00  0.00000000E+00
  0.00000000E+00  0.00000000E+00  0.00000000E+00
  0.00000000E+00  0.00000000E+00  0.00000000E+00
  0.00000000E+00  0.00000000E+00  0.00000000E+00
  0.00000000E+00  0.00000000E+00  0.00000000E+00
  0.00000000E+00  0.00000000E+00  0.00000000E+00
  0.00000000E+00  0.00000000E+00  0.00000000E+00
  0.00000000E+00  0.00000000E+00  0.00000000E+00
  0.00000000E+00  0.00000000E+00  0.00000000E+00
  0.00000000E+00  0.00000000E+00  0.00000000E+00
  0.00000000E+00  0.00000000E+00  0.00000000E+00
  0.00000000E+00  0.00000000E+00  0.00000000E+00
  0.00000000E+00  0.00000000E+00  0.00000000E+00
